*Heading
** Job name: final_v3 Model name: Lithium_Model
** Generated by: Abaqus/CAE 2017
*Preprint, echo=NO, model=NO, history=NO, contact=NO
**
** PARTS
**
*Part, name=LITHIUM_SE
*End Part
**  
**
** ASSEMBLY
**
*Assembly, name=Assembly
**  
*Instance, name=LITHIUM_INST, part=LITHIUM_SE
*Node
      1,          12.,          5.5
      2,          12.,           5.
      3,          20.,           5.
      4,          20.,          5.5
      5,           8.,           5.
      6,           8.,          5.5
      7,           0.,          5.5
      8,           0.,           5.
      9,          20.,         10.5
     10,           0.,         10.5
     11,           0.,           0.
     12,          20.,           0.
     13,          12.,    5.4000001
     14,          12.,   5.30000019
     15,          12.,   5.19999981
     16,          12.,    5.0999999
     17,   12.1999998,           5.
     18,   12.3999996,           5.
     19,   12.6000004,           5.
     20,   12.8000002,           5.
     21,          13.,           5.
     22,   13.1999998,           5.
     23,   13.3999996,           5.
     24,   13.6000004,           5.
     25,   13.8000002,           5.
     26,          14.,           5.
     27,   14.1999998,           5.
     28,   14.3999996,           5.
     29,   14.6000004,           5.
     30,   14.8000002,           5.
     31,          15.,           5.
     32,   15.1999998,           5.
     33,   15.3999996,           5.
     34,   15.6000004,           5.
     35,   15.8000002,           5.
     36,          16.,           5.
     37,   16.2000008,           5.
     38,   16.3999996,           5.
     39,   16.6000004,           5.
     40,   16.7999992,           5.
     41,          17.,           5.
     42,   17.2000008,           5.
     43,   17.3999996,           5.
     44,   17.6000004,           5.
     45,   17.7999992,           5.
     46,          18.,           5.
     47,   18.2000008,           5.
     48,   18.3999996,           5.
     49,   18.6000004,           5.
     50,   18.7999992,           5.
     51,          19.,           5.
     52,   19.2000008,           5.
     53,   19.3999996,           5.
     54,   19.6000004,           5.
     55,   19.7999992,           5.
     56,          20.,    5.0999999
     57,          20.,   5.19999981
     58,          20.,   5.30000019
     59,          20.,    5.4000001
     60,   19.7999992,          5.5
     61,   19.6000004,          5.5
     62,   19.3999996,          5.5
     63,   19.2000008,          5.5
     64,          19.,          5.5
     65,   18.7999992,          5.5
     66,   18.6000004,          5.5
     67,   18.3999996,          5.5
     68,   18.2000008,          5.5
     69,          18.,          5.5
     70,   17.7999992,          5.5
     71,   17.6000004,          5.5
     72,   17.3999996,          5.5
     73,   17.2000008,          5.5
     74,          17.,          5.5
     75,   16.7999992,          5.5
     76,   16.6000004,          5.5
     77,   16.3999996,          5.5
     78,   16.2000008,          5.5
     79,          16.,          5.5
     80,   15.8000002,          5.5
     81,   15.6000004,          5.5
     82,   15.3999996,          5.5
     83,   15.1999998,          5.5
     84,          15.,          5.5
     85,   14.8000002,          5.5
     86,   14.6000004,          5.5
     87,   14.3999996,          5.5
     88,   14.1999998,          5.5
     89,          14.,          5.5
     90,   13.8000002,          5.5
     91,   13.6000004,          5.5
     92,   13.3999996,          5.5
     93,   13.1999998,          5.5
     94,          13.,          5.5
     95,   12.8000002,          5.5
     96,   12.6000004,          5.5
     97,   12.3999996,          5.5
     98,   12.1999998,          5.5
     99,           8.,    5.0999999
    100,           8.,   5.19999981
    101,           8.,   5.30000019
    102,           8.,    5.4000001
    103,   7.80000019,          5.5
    104,    7.5999999,          5.5
    105,    7.4000001,          5.5
    106,   7.19999981,          5.5
    107,           7.,          5.5
    108,   6.80000019,          5.5
    109,    6.5999999,          5.5
    110,    6.4000001,          5.5
    111,   6.19999981,          5.5
    112,           6.,          5.5
    113,   5.80000019,          5.5
    114,    5.5999999,          5.5
    115,    5.4000001,          5.5
    116,   5.19999981,          5.5
    117,           5.,          5.5
    118,   4.80000019,          5.5
    119,    4.5999999,          5.5
    120,    4.4000001,          5.5
    121,   4.19999981,          5.5
    122,           4.,          5.5
    123,   3.79999995,          5.5
    124,    3.5999999,          5.5
    125,    3.4000001,          5.5
    126,   3.20000005,          5.5
    127,           3.,          5.5
    128,   2.79999995,          5.5
    129,    2.5999999,          5.5
    130,    2.4000001,          5.5
    131,   2.20000005,          5.5
    132,           2.,          5.5
    133,   1.79999995,          5.5
    134,   1.60000002,          5.5
    135,   1.39999998,          5.5
    136,   1.20000005,          5.5
    137,           1.,          5.5
    138,  0.800000012,          5.5
    139,  0.600000024,          5.5
    140,  0.400000006,          5.5
    141,  0.200000003,          5.5
    142,           0.,    5.4000001
    143,           0.,   5.30000019
    144,           0.,   5.19999981
    145,           0.,    5.0999999
    146,  0.200000003,           5.
    147,  0.400000006,           5.
    148,  0.600000024,           5.
    149,  0.800000012,           5.
    150,           1.,           5.
    151,   1.20000005,           5.
    152,   1.39999998,           5.
    153,   1.60000002,           5.
    154,   1.79999995,           5.
    155,           2.,           5.
    156,   2.20000005,           5.
    157,    2.4000001,           5.
    158,    2.5999999,           5.
    159,   2.79999995,           5.
    160,           3.,           5.
    161,   3.20000005,           5.
    162,    3.4000001,           5.
    163,    3.5999999,           5.
    164,   3.79999995,           5.
    165,           4.,           5.
    166,   4.19999981,           5.
    167,    4.4000001,           5.
    168,    4.5999999,           5.
    169,   4.80000019,           5.
    170,           5.,           5.
    171,   5.19999981,           5.
    172,    5.4000001,           5.
    173,    5.5999999,           5.
    174,   5.80000019,           5.
    175,           6.,           5.
    176,   6.19999981,           5.
    177,    6.4000001,           5.
    178,    6.5999999,           5.
    179,   6.80000019,           5.
    180,           7.,           5.
    181,   7.19999981,           5.
    182,    7.4000001,           5.
    183,    7.5999999,           5.
    184,   7.80000019,           5.
    185,          20.,           6.
    186,          20.,          6.5
    187,          20.,           7.
    188,          20.,          7.5
    189,          20.,           8.
    190,          20.,          8.5
    191,          20.,           9.
    192,          20.,          9.5
    193,          20.,          10.
    194,    19.833334,         10.5
    195,    19.666666,         10.5
    196,         19.5,         10.5
    197,    19.333334,         10.5
    198,    19.166666,         10.5
    199,          19.,         10.5
    200,    18.833334,         10.5
    201,    18.666666,         10.5
    202,         18.5,         10.5
    203,    18.333334,         10.5
    204,    18.166666,         10.5
    205,          18.,         10.5
    206,    17.833334,         10.5
    207,    17.666666,         10.5
    208,         17.5,         10.5
    209,    17.333334,         10.5
    210,    17.166666,         10.5
    211,          17.,         10.5
    212,    16.833334,         10.5
    213,    16.666666,         10.5
    214,         16.5,         10.5
    215,    16.333334,         10.5
    216,    16.166666,         10.5
    217,          16.,         10.5
    218,    15.833333,         10.5
    219,    15.666667,         10.5
    220,         15.5,         10.5
    221,    15.333333,         10.5
    222,    15.166667,         10.5
    223,          15.,         10.5
    224,    14.833333,         10.5
    225,    14.666667,         10.5
    226,         14.5,         10.5
    227,    14.333333,         10.5
    228,    14.166667,         10.5
    229,          14.,         10.5
    230,    13.833333,         10.5
    231,    13.666667,         10.5
    232,         13.5,         10.5
    233,    13.333333,         10.5
    234,    13.166667,         10.5
    235,          13.,         10.5
    236,    12.833333,         10.5
    237,    12.666667,         10.5
    238,         12.5,         10.5
    239,    12.333333,         10.5
    240,    12.166667,         10.5
    241,          12.,         10.5
    242,    11.833333,         10.5
    243,    11.666667,         10.5
    244,         11.5,         10.5
    245,    11.333333,         10.5
    246,    11.166667,         10.5
    247,          11.,         10.5
    248,    10.833333,         10.5
    249,    10.666667,         10.5
    250,         10.5,         10.5
    251,    10.333333,         10.5
    252,    10.166667,         10.5
    253,          10.,         10.5
    254,   9.83333302,         10.5
    255,   9.66666698,         10.5
    256,          9.5,         10.5
    257,   9.33333302,         10.5
    258,   9.16666698,         10.5
    259,           9.,         10.5
    260,   8.83333302,         10.5
    261,   8.66666698,         10.5
    262,          8.5,         10.5
    263,   8.33333302,         10.5
    264,   8.16666698,         10.5
    265,           8.,         10.5
    266,   7.83333349,         10.5
    267,   7.66666651,         10.5
    268,          7.5,         10.5
    269,   7.33333349,         10.5
    270,   7.16666651,         10.5
    271,           7.,         10.5
    272,   6.83333349,         10.5
    273,   6.66666651,         10.5
    274,          6.5,         10.5
    275,   6.33333349,         10.5
    276,   6.16666651,         10.5
    277,           6.,         10.5
    278,   5.83333349,         10.5
    279,   5.66666651,         10.5
    280,          5.5,         10.5
    281,   5.33333349,         10.5
    282,   5.16666651,         10.5
    283,           5.,         10.5
    284,   4.83333349,         10.5
    285,   4.66666651,         10.5
    286,          4.5,         10.5
    287,   4.33333349,         10.5
    288,   4.16666651,         10.5
    289,           4.,         10.5
    290,   3.83333325,         10.5
    291,   3.66666675,         10.5
    292,          3.5,         10.5
    293,   3.33333325,         10.5
    294,   3.16666675,         10.5
    295,           3.,         10.5
    296,   2.83333325,         10.5
    297,   2.66666675,         10.5
    298,          2.5,         10.5
    299,   2.33333325,         10.5
    300,   2.16666675,         10.5
    301,           2.,         10.5
    302,   1.83333337,         10.5
    303,   1.66666663,         10.5
    304,          1.5,         10.5
    305,   1.33333337,         10.5
    306,   1.16666663,         10.5
    307,           1.,         10.5
    308,  0.833333313,         10.5
    309,  0.666666687,         10.5
    310,          0.5,         10.5
    311,  0.333333343,         10.5
    312,  0.166666672,         10.5
    313,           0.,          10.
    314,           0.,          9.5
    315,           0.,           9.
    316,           0.,          8.5
    317,           0.,           8.
    318,           0.,          7.5
    319,           0.,           7.
    320,           0.,          6.5
    321,           0.,           6.
    322,   8.10000038,          5.5
    323,   8.19999981,          5.5
    324,   8.30000019,          5.5
    325,   8.39999962,          5.5
    326,          8.5,          5.5
    327,   8.60000038,          5.5
    328,   8.69999981,          5.5
    329,   8.80000019,          5.5
    330,   8.89999962,          5.5
    331,           9.,          5.5
    332,   9.10000038,          5.5
    333,   9.19999981,          5.5
    334,   9.30000019,          5.5
    335,   9.39999962,          5.5
    336,          9.5,          5.5
    337,   9.60000038,          5.5
    338,   9.69999981,          5.5
    339,   9.80000019,          5.5
    340,   9.89999962,          5.5
    341,          10.,          5.5
    342,   10.1000004,          5.5
    343,   10.1999998,          5.5
    344,   10.3000002,          5.5
    345,   10.3999996,          5.5
    346,         10.5,          5.5
    347,   10.6000004,          5.5
    348,   10.6999998,          5.5
    349,   10.8000002,          5.5
    350,   10.8999996,          5.5
    351,          11.,          5.5
    352,   11.1000004,          5.5
    353,   11.1999998,          5.5
    354,   11.3000002,          5.5
    355,   11.3999996,          5.5
    356,         11.5,          5.5
    357,   11.6000004,          5.5
    358,   11.6999998,          5.5
    359,   11.8000002,          5.5
    360,   11.8999996,          5.5
    361,   8.10000038,           5.
    362,   8.19999981,           5.
    363,   8.30000019,           5.
    364,   8.39999962,           5.
    365,          8.5,           5.
    366,   8.60000038,           5.
    367,   8.69999981,           5.
    368,   8.80000019,           5.
    369,   8.89999962,           5.
    370,           9.,           5.
    371,   9.10000038,           5.
    372,   9.19999981,           5.
    373,   9.30000019,           5.
    374,   9.39999962,           5.
    375,          9.5,           5.
    376,   9.60000038,           5.
    377,   9.69999981,           5.
    378,   9.80000019,           5.
    379,   9.89999962,           5.
    380,          10.,           5.
    381,   10.1000004,           5.
    382,   10.1999998,           5.
    383,   10.3000002,           5.
    384,   10.3999996,           5.
    385,         10.5,           5.
    386,   10.6000004,           5.
    387,   10.6999998,           5.
    388,   10.8000002,           5.
    389,   10.8999996,           5.
    390,          11.,           5.
    391,   11.1000004,           5.
    392,   11.1999998,           5.
    393,   11.3000002,           5.
    394,   11.3999996,           5.
    395,         11.5,           5.
    396,   11.6000004,           5.
    397,   11.6999998,           5.
    398,   11.8000002,           5.
    399,   11.8999996,           5.
    400,           0.,          4.5
    401,           0.,           4.
    402,           0.,          3.5
    403,           0.,           3.
    404,           0.,          2.5
    405,           0.,           2.
    406,           0.,          1.5
    407,           0.,           1.
    408,           0.,          0.5
    409,  0.166666672,           0.
    410,  0.333333343,           0.
    411,          0.5,           0.
    412,  0.666666687,           0.
    413,  0.833333313,           0.
    414,           1.,           0.
    415,   1.16666663,           0.
    416,   1.33333337,           0.
    417,          1.5,           0.
    418,   1.66666663,           0.
    419,   1.83333337,           0.
    420,           2.,           0.
    421,   2.16666675,           0.
    422,   2.33333325,           0.
    423,          2.5,           0.
    424,   2.66666675,           0.
    425,   2.83333325,           0.
    426,           3.,           0.
    427,   3.16666675,           0.
    428,   3.33333325,           0.
    429,          3.5,           0.
    430,   3.66666675,           0.
    431,   3.83333325,           0.
    432,           4.,           0.
    433,   4.16666651,           0.
    434,   4.33333349,           0.
    435,          4.5,           0.
    436,   4.66666651,           0.
    437,   4.83333349,           0.
    438,           5.,           0.
    439,   5.16666651,           0.
    440,   5.33333349,           0.
    441,          5.5,           0.
    442,   5.66666651,           0.
    443,   5.83333349,           0.
    444,           6.,           0.
    445,   6.16666651,           0.
    446,   6.33333349,           0.
    447,          6.5,           0.
    448,   6.66666651,           0.
    449,   6.83333349,           0.
    450,           7.,           0.
    451,   7.16666651,           0.
    452,   7.33333349,           0.
    453,          7.5,           0.
    454,   7.66666651,           0.
    455,   7.83333349,           0.
    456,           8.,           0.
    457,   8.16666698,           0.
    458,   8.33333302,           0.
    459,          8.5,           0.
    460,   8.66666698,           0.
    461,   8.83333302,           0.
    462,           9.,           0.
    463,   9.16666698,           0.
    464,   9.33333302,           0.
    465,          9.5,           0.
    466,   9.66666698,           0.
    467,   9.83333302,           0.
    468,          10.,           0.
    469,    10.166667,           0.
    470,    10.333333,           0.
    471,         10.5,           0.
    472,    10.666667,           0.
    473,    10.833333,           0.
    474,          11.,           0.
    475,    11.166667,           0.
    476,    11.333333,           0.
    477,         11.5,           0.
    478,    11.666667,           0.
    479,    11.833333,           0.
    480,          12.,           0.
    481,    12.166667,           0.
    482,    12.333333,           0.
    483,         12.5,           0.
    484,    12.666667,           0.
    485,    12.833333,           0.
    486,          13.,           0.
    487,    13.166667,           0.
    488,    13.333333,           0.
    489,         13.5,           0.
    490,    13.666667,           0.
    491,    13.833333,           0.
    492,          14.,           0.
    493,    14.166667,           0.
    494,    14.333333,           0.
    495,         14.5,           0.
    496,    14.666667,           0.
    497,    14.833333,           0.
    498,          15.,           0.
    499,    15.166667,           0.
    500,    15.333333,           0.
    501,         15.5,           0.
    502,    15.666667,           0.
    503,    15.833333,           0.
    504,          16.,           0.
    505,    16.166666,           0.
    506,    16.333334,           0.
    507,         16.5,           0.
    508,    16.666666,           0.
    509,    16.833334,           0.
    510,          17.,           0.
    511,    17.166666,           0.
    512,    17.333334,           0.
    513,         17.5,           0.
    514,    17.666666,           0.
    515,    17.833334,           0.
    516,          18.,           0.
    517,    18.166666,           0.
    518,    18.333334,           0.
    519,         18.5,           0.
    520,    18.666666,           0.
    521,    18.833334,           0.
    522,          19.,           0.
    523,    19.166666,           0.
    524,    19.333334,           0.
    525,         19.5,           0.
    526,    19.666666,           0.
    527,    19.833334,           0.
    528,          20.,          0.5
    529,          20.,           1.
    530,          20.,          1.5
    531,          20.,           2.
    532,          20.,          2.5
    533,          20.,           3.
    534,          20.,          3.5
    535,          20.,           4.
    536,          20.,          4.5
    537,   12.1999998,    5.4000001
    538,   12.1999998,   5.30000019
    539,   12.1999998,   5.19999981
    540,   12.1999998,    5.0999999
    541,   12.3999996,    5.4000001
    542,   12.3999996,   5.30000019
    543,   12.3999996,   5.19999981
    544,   12.3999996,    5.0999999
    545,   12.6000004,    5.4000001
    546,   12.6000004,   5.30000019
    547,   12.6000004,   5.19999981
    548,   12.6000004,    5.0999999
    549,   12.8000002,    5.4000001
    550,   12.8000002,   5.30000019
    551,   12.8000002,   5.19999981
    552,   12.8000002,    5.0999999
    553,          13.,    5.4000001
    554,          13.,   5.30000019
    555,          13.,   5.19999981
    556,          13.,    5.0999999
    557,   13.1999998,    5.4000001
    558,   13.1999998,   5.30000019
    559,   13.1999998,   5.19999981
    560,   13.1999998,    5.0999999
    561,   13.3999996,    5.4000001
    562,   13.3999996,   5.30000019
    563,   13.3999996,   5.19999981
    564,   13.3999996,    5.0999999
    565,   13.6000004,    5.4000001
    566,   13.6000004,   5.30000019
    567,   13.6000004,   5.19999981
    568,   13.6000004,    5.0999999
    569,   13.8000002,    5.4000001
    570,   13.8000002,   5.30000019
    571,   13.8000002,   5.19999981
    572,   13.8000002,    5.0999999
    573,          14.,    5.4000001
    574,          14.,   5.30000019
    575,          14.,   5.19999981
    576,          14.,    5.0999999
    577,   14.1999998,    5.4000001
    578,   14.1999998,   5.30000019
    579,   14.1999998,   5.19999981
    580,   14.1999998,    5.0999999
    581,   14.3999996,    5.4000001
    582,   14.3999996,   5.30000019
    583,   14.3999996,   5.19999981
    584,   14.3999996,    5.0999999
    585,   14.6000004,    5.4000001
    586,   14.6000004,   5.30000019
    587,   14.6000004,   5.19999981
    588,   14.6000004,    5.0999999
    589,   14.8000002,    5.4000001
    590,   14.8000002,   5.30000019
    591,   14.8000002,   5.19999981
    592,   14.8000002,    5.0999999
    593,          15.,    5.4000001
    594,          15.,   5.30000019
    595,          15.,   5.19999981
    596,          15.,    5.0999999
    597,   15.1999998,    5.4000001
    598,   15.1999998,   5.30000019
    599,   15.1999998,   5.19999981
    600,   15.1999998,    5.0999999
    601,   15.3999996,    5.4000001
    602,   15.3999996,   5.30000019
    603,   15.3999996,   5.19999981
    604,   15.3999996,    5.0999999
    605,   15.6000004,    5.4000001
    606,   15.6000004,   5.30000019
    607,   15.6000004,   5.19999981
    608,   15.6000004,    5.0999999
    609,   15.8000002,    5.4000001
    610,   15.8000002,   5.30000019
    611,   15.8000002,   5.19999981
    612,   15.8000002,    5.0999999
    613,          16.,    5.4000001
    614,          16.,   5.30000019
    615,          16.,   5.19999981
    616,          16.,    5.0999999
    617,   16.2000008,    5.4000001
    618,   16.2000008,   5.30000019
    619,   16.2000008,   5.19999981
    620,   16.2000008,    5.0999999
    621,   16.3999996,    5.4000001
    622,   16.3999996,   5.30000019
    623,   16.3999996,   5.19999981
    624,   16.3999996,    5.0999999
    625,   16.6000004,    5.4000001
    626,   16.6000004,   5.30000019
    627,   16.6000004,   5.19999981
    628,   16.6000004,    5.0999999
    629,   16.7999992,    5.4000001
    630,   16.7999992,   5.30000019
    631,   16.7999992,   5.19999981
    632,   16.7999992,    5.0999999
    633,          17.,    5.4000001
    634,          17.,   5.30000019
    635,          17.,   5.19999981
    636,          17.,    5.0999999
    637,   17.2000008,    5.4000001
    638,   17.2000008,   5.30000019
    639,   17.2000008,   5.19999981
    640,   17.2000008,    5.0999999
    641,   17.3999996,    5.4000001
    642,   17.3999996,   5.30000019
    643,   17.3999996,   5.19999981
    644,   17.3999996,    5.0999999
    645,   17.6000004,    5.4000001
    646,   17.6000004,   5.30000019
    647,   17.6000004,   5.19999981
    648,   17.6000004,    5.0999999
    649,   17.7999992,    5.4000001
    650,   17.7999992,   5.30000019
    651,   17.7999992,   5.19999981
    652,   17.7999992,    5.0999999
    653,          18.,    5.4000001
    654,          18.,   5.30000019
    655,          18.,   5.19999981
    656,          18.,    5.0999999
    657,   18.2000008,    5.4000001
    658,   18.2000008,   5.30000019
    659,   18.2000008,   5.19999981
    660,   18.2000008,    5.0999999
    661,   18.3999996,    5.4000001
    662,   18.3999996,   5.30000019
    663,   18.3999996,   5.19999981
    664,   18.3999996,    5.0999999
    665,   18.6000004,    5.4000001
    666,   18.6000004,   5.30000019
    667,   18.6000004,   5.19999981
    668,   18.6000004,    5.0999999
    669,   18.7999992,    5.4000001
    670,   18.7999992,   5.30000019
    671,   18.7999992,   5.19999981
    672,   18.7999992,    5.0999999
    673,          19.,    5.4000001
    674,          19.,   5.30000019
    675,          19.,   5.19999981
    676,          19.,    5.0999999
    677,   19.2000008,    5.4000001
    678,   19.2000008,   5.30000019
    679,   19.2000008,   5.19999981
    680,   19.2000008,    5.0999999
    681,   19.3999996,    5.4000001
    682,   19.3999996,   5.30000019
    683,   19.3999996,   5.19999981
    684,   19.3999996,    5.0999999
    685,   19.6000004,    5.4000001
    686,   19.6000004,   5.30000019
    687,   19.6000004,   5.19999981
    688,   19.6000004,    5.0999999
    689,   19.7999992,    5.4000001
    690,   19.7999992,   5.30000019
    691,   19.7999992,   5.19999981
    692,   19.7999992,    5.0999999
    693,   7.80000019,    5.0999999
    694,   7.80000019,   5.19999981
    695,   7.80000019,   5.30000019
    696,   7.80000019,    5.4000001
    697,    7.5999999,    5.0999999
    698,    7.5999999,   5.19999981
    699,    7.5999999,   5.30000019
    700,    7.5999999,    5.4000001
    701,    7.4000001,    5.0999999
    702,    7.4000001,   5.19999981
    703,    7.4000001,   5.30000019
    704,    7.4000001,    5.4000001
    705,   7.19999981,    5.0999999
    706,   7.19999981,   5.19999981
    707,   7.19999981,   5.30000019
    708,   7.19999981,    5.4000001
    709,           7.,    5.0999999
    710,           7.,   5.19999981
    711,           7.,   5.30000019
    712,           7.,    5.4000001
    713,   6.80000019,    5.0999999
    714,   6.80000019,   5.19999981
    715,   6.80000019,   5.30000019
    716,   6.80000019,    5.4000001
    717,    6.5999999,    5.0999999
    718,    6.5999999,   5.19999981
    719,    6.5999999,   5.30000019
    720,    6.5999999,    5.4000001
    721,    6.4000001,    5.0999999
    722,    6.4000001,   5.19999981
    723,    6.4000001,   5.30000019
    724,    6.4000001,    5.4000001
    725,   6.19999981,    5.0999999
    726,   6.19999981,   5.19999981
    727,   6.19999981,   5.30000019
    728,   6.19999981,    5.4000001
    729,           6.,    5.0999999
    730,           6.,   5.19999981
    731,           6.,   5.30000019
    732,           6.,    5.4000001
    733,   5.80000019,    5.0999999
    734,   5.80000019,   5.19999981
    735,   5.80000019,   5.30000019
    736,   5.80000019,    5.4000001
    737,    5.5999999,    5.0999999
    738,    5.5999999,   5.19999981
    739,    5.5999999,   5.30000019
    740,    5.5999999,    5.4000001
    741,    5.4000001,    5.0999999
    742,    5.4000001,   5.19999981
    743,    5.4000001,   5.30000019
    744,    5.4000001,    5.4000001
    745,   5.19999981,    5.0999999
    746,   5.19999981,   5.19999981
    747,   5.19999981,   5.30000019
    748,   5.19999981,    5.4000001
    749,           5.,    5.0999999
    750,           5.,   5.19999981
    751,           5.,   5.30000019
    752,           5.,    5.4000001
    753,   4.80000019,    5.0999999
    754,   4.80000019,   5.19999981
    755,   4.80000019,   5.30000019
    756,   4.80000019,    5.4000001
    757,    4.5999999,    5.0999999
    758,    4.5999999,   5.19999981
    759,    4.5999999,   5.30000019
    760,    4.5999999,    5.4000001
    761,    4.4000001,    5.0999999
    762,    4.4000001,   5.19999981
    763,    4.4000001,   5.30000019
    764,    4.4000001,    5.4000001
    765,   4.19999981,    5.0999999
    766,   4.19999981,   5.19999981
    767,   4.19999981,   5.30000019
    768,   4.19999981,    5.4000001
    769,           4.,    5.0999999
    770,           4.,   5.19999981
    771,           4.,   5.30000019
    772,           4.,    5.4000001
    773,   3.79999995,    5.0999999
    774,   3.79999995,   5.19999981
    775,   3.79999995,   5.30000019
    776,   3.79999995,    5.4000001
    777,    3.5999999,    5.0999999
    778,    3.5999999,   5.19999981
    779,    3.5999999,   5.30000019
    780,    3.5999999,    5.4000001
    781,    3.4000001,    5.0999999
    782,    3.4000001,   5.19999981
    783,    3.4000001,   5.30000019
    784,    3.4000001,    5.4000001
    785,   3.20000005,    5.0999999
    786,   3.20000005,   5.19999981
    787,   3.20000005,   5.30000019
    788,   3.20000005,    5.4000001
    789,           3.,    5.0999999
    790,           3.,   5.19999981
    791,           3.,   5.30000019
    792,           3.,    5.4000001
    793,   2.79999995,    5.0999999
    794,   2.79999995,   5.19999981
    795,   2.79999995,   5.30000019
    796,   2.79999995,    5.4000001
    797,    2.5999999,    5.0999999
    798,    2.5999999,   5.19999981
    799,    2.5999999,   5.30000019
    800,    2.5999999,    5.4000001
    801,    2.4000001,    5.0999999
    802,    2.4000001,   5.19999981
    803,    2.4000001,   5.30000019
    804,    2.4000001,    5.4000001
    805,   2.20000005,    5.0999999
    806,   2.20000005,   5.19999981
    807,   2.20000005,   5.30000019
    808,   2.20000005,    5.4000001
    809,           2.,    5.0999999
    810,           2.,   5.19999981
    811,           2.,   5.30000019
    812,           2.,    5.4000001
    813,   1.79999995,    5.0999999
    814,   1.79999995,   5.19999981
    815,   1.79999995,   5.30000019
    816,   1.79999995,    5.4000001
    817,   1.60000002,    5.0999999
    818,   1.60000002,   5.19999981
    819,   1.60000002,   5.30000019
    820,   1.60000002,    5.4000001
    821,   1.39999998,    5.0999999
    822,   1.39999998,   5.19999981
    823,   1.39999998,   5.30000019
    824,   1.39999998,    5.4000001
    825,   1.20000005,    5.0999999
    826,   1.20000005,   5.19999981
    827,   1.20000005,   5.30000019
    828,   1.20000005,    5.4000001
    829,           1.,    5.0999999
    830,           1.,   5.19999981
    831,           1.,   5.30000019
    832,           1.,    5.4000001
    833,  0.800000012,    5.0999999
    834,  0.800000012,   5.19999981
    835,  0.800000012,   5.30000019
    836,  0.800000012,    5.4000001
    837,  0.600000024,    5.0999999
    838,  0.600000024,   5.19999981
    839,  0.600000024,   5.30000019
    840,  0.600000024,    5.4000001
    841,  0.400000006,    5.0999999
    842,  0.400000006,   5.19999981
    843,  0.400000006,   5.30000019
    844,  0.400000006,    5.4000001
    845,  0.200000003,    5.0999999
    846,  0.200000003,   5.19999981
    847,  0.200000003,   5.30000019
    848,  0.200000003,    5.4000001
    849,   19.8033333,           6.
    850,   19.8066673,          6.5
    851,   19.8099995,           7.
    852,   19.8133335,          7.5
    853,   19.8166676,           8.
    854,   19.8199997,          8.5
    855,   19.8233337,           9.
    856,   19.8266659,          9.5
    857,   19.8299999,          10.
    858,   19.6066666,           6.
    859,   19.6133327,          6.5
    860,   19.6200008,           7.
    861,    19.626667,          7.5
    862,   19.6333332,           8.
    863,   19.6399994,          8.5
    864,   19.6466675,           9.
    865,   19.6533337,          9.5
    866,   19.6599998,          10.
    867,   19.4099998,           6.
    868,   19.4200001,          6.5
    869,   19.4300003,           7.
    870,   19.4400005,          7.5
    871,   19.4500008,           8.
    872,   19.4599991,          8.5
    873,   19.4699993,           9.
    874,   19.4799995,          9.5
    875,   19.4899998,          10.
    876,   19.2133331,           6.
    877,   19.2266674,          6.5
    878,   19.2399998,           7.
    879,    19.253334,          7.5
    880,   19.2666664,           8.
    881,   19.2800007,          8.5
    882,   19.2933331,           9.
    883,   19.3066673,          9.5
    884,   19.3199997,          10.
    885,   19.0166664,           6.
    886,   19.0333328,          6.5
    887,   19.0499992,           7.
    888,   19.0666676,          7.5
    889,    19.083334,           8.
    890,   19.1000004,          8.5
    891,   19.1166668,           9.
    892,   19.1333332,          9.5
    893,   19.1499996,          10.
    894,   18.8199997,           6.
    895,   18.8400002,          6.5
    896,   18.8600006,           7.
    897,   18.8799992,          7.5
    898,   18.8999996,           8.
    899,   18.9200001,          8.5
    900,   18.9400005,           9.
    901,   18.9599991,          9.5
    902,   18.9799995,          10.
    903,    18.623333,           6.
    904,   18.6466675,          6.5
    905,   18.6700001,           7.
    906,   18.6933327,          7.5
    907,   18.7166672,           8.
    908,   18.7399998,          8.5
    909,   18.7633343,           9.
    910,   18.7866669,          9.5
    911,   18.8099995,          10.
    912,   18.4266663,           6.
    913,   18.4533329,          6.5
    914,   18.4799995,           7.
    915,   18.5066662,          7.5
    916,   18.5333328,           8.
    917,   18.5599995,          8.5
    918,   18.5866661,           9.
    919,   18.6133327,          9.5
    920,   18.6399994,          10.
    921,   18.2299995,           6.
    922,   18.2600002,          6.5
    923,   18.2900009,           7.
    924,   18.3199997,          7.5
    925,   18.3500004,           8.
    926,   18.3799992,          8.5
    927,   18.4099998,           9.
    928,   18.4400005,          9.5
    929,   18.4699993,          10.
    930,   18.0333328,           6.
    931,   18.0666676,          6.5
    932,   18.1000004,           7.
    933,   18.1333332,          7.5
    934,    18.166666,           8.
    935,   18.2000008,          8.5
    936,   18.2333336,           9.
    937,   18.2666664,          9.5
    938,   18.2999992,          10.
    939,   17.8366661,           6.
    940,    17.873333,          6.5
    941,   17.9099998,           7.
    942,   17.9466667,          7.5
    943,   17.9833336,           8.
    944,   18.0200005,          8.5
    945,   18.0566673,           9.
    946,   18.0933342,          9.5
    947,   18.1299992,          10.
    948,   17.6399994,           6.
    949,   17.6800003,          6.5
    950,   17.7199993,           7.
    951,   17.7600002,          7.5
    952,   17.7999992,           8.
    953,   17.8400002,          8.5
    954,   17.8799992,           9.
    955,   17.9200001,          9.5
    956,   17.9599991,          10.
    957,   17.4433327,           6.
    958,   17.4866657,          6.5
    959,   17.5300007,           7.
    960,   17.5733337,          7.5
    961,   17.6166668,           8.
    962,   17.6599998,          8.5
    963,   17.7033329,           9.
    964,    17.746666,          9.5
    965,   17.7900009,          10.
    966,    17.246666,           6.
    967,   17.2933331,          6.5
    968,   17.3400002,           7.
    969,   17.3866673,          7.5
    970,   17.4333324,           8.
    971,   17.4799995,          8.5
    972,   17.5266666,           9.
    973,   17.5733337,          9.5
    974,   17.6200008,          10.
    975,   17.0499992,           6.
    976,   17.1000004,          6.5
    977,   17.1499996,           7.
    978,   17.2000008,          7.5
    979,        17.25,           8.
    980,   17.2999992,          8.5
    981,   17.3500004,           9.
    982,   17.3999996,          9.5
    983,   17.4500008,          10.
    984,   16.8533325,           6.
    985,   16.9066658,          6.5
    986,   16.9599991,           7.
    987,   17.0133343,          7.5
    988,   17.0666676,           8.
    989,   17.1200008,          8.5
    990,   17.1733341,           9.
    991,   17.2266674,          9.5
    992,   17.2800007,          10.
    993,   16.6566658,           6.
    994,   16.7133331,          6.5
    995,   16.7700005,           7.
    996,   16.8266659,          7.5
    997,   16.8833332,           8.
    998,   16.9400005,          8.5
    999,    16.996666,           9.
   1000,   17.0533333,          9.5
   1001,   17.1100006,          10.
   1002,   16.4599991,           6.
   1003,   16.5200005,          6.5
   1004,   16.5799999,           7.
   1005,   16.6399994,          7.5
   1006,   16.7000008,           8.
   1007,   16.7600002,          8.5
   1008,   16.8199997,           9.
   1009,   16.8799992,          9.5
   1010,   16.9400005,          10.
   1011,   16.2633343,           6.
   1012,   16.3266659,          6.5
   1013,   16.3899994,           7.
   1014,   16.4533329,          7.5
   1015,   16.5166664,           8.
   1016,   16.5799999,          8.5
   1017,   16.6433334,           9.
   1018,   16.7066669,          9.5
   1019,   16.7700005,          10.
   1020,   16.0666676,           6.
   1021,   16.1333332,          6.5
   1022,   16.2000008,           7.
   1023,   16.2666664,          7.5
   1024,    16.333334,           8.
   1025,   16.3999996,          8.5
   1026,   16.4666672,           9.
   1027,   16.5333328,          9.5
   1028,   16.6000004,          10.
   1029,   15.8699999,           6.
   1030,   15.9399996,          6.5
   1031,   16.0100002,           7.
   1032,   16.0799999,          7.5
   1033,   16.1499996,           8.
   1034,   16.2199993,          8.5
   1035,   16.2900009,           9.
   1036,   16.3600006,          9.5
   1037,   16.4300003,          10.
   1038,   15.6733332,           6.
   1039,   15.7466669,          6.5
   1040,   15.8199997,           7.
   1041,   15.8933334,          7.5
   1042,   15.9666662,           8.
   1043,   16.0400009,          8.5
   1044,   16.1133327,           9.
   1045,   16.1866665,          9.5
   1046,   16.2600002,          10.
   1047,   15.4766665,           6.
   1048,   15.5533333,          6.5
   1049,   15.6300001,           7.
   1050,   15.7066669,          7.5
   1051,   15.7833338,           8.
   1052,   15.8599997,          8.5
   1053,   15.9366665,           9.
   1054,   16.0133343,          9.5
   1055,   16.0900002,          10.
   1056,   15.2799997,           6.
   1057,   15.3599997,          6.5
   1058,   15.4399996,           7.
   1059,   15.5200005,          7.5
   1060,   15.6000004,           8.
   1061,   15.6800003,          8.5
   1062,   15.7600002,           9.
   1063,   15.8400002,          9.5
   1064,   15.9200001,          10.
   1065,    15.083333,           6.
   1066,    15.166667,          6.5
   1067,        15.25,           7.
   1068,    15.333333,          7.5
   1069,    15.416667,           8.
   1070,         15.5,          8.5
   1071,    15.583333,           9.
   1072,    15.666667,          9.5
   1073,        15.75,          10.
   1074,   14.8866663,           6.
   1075,   14.9733334,          6.5
   1076,   15.0600004,           7.
   1077,   15.1466665,          7.5
   1078,   15.2333336,           8.
   1079,   15.3199997,          8.5
   1080,   15.4066668,           9.
   1081,   15.4933329,          9.5
   1082,   15.5799999,          10.
   1083,   14.6899996,           6.
   1084,   14.7799997,          6.5
   1085,   14.8699999,           7.
   1086,        14.96,          7.5
   1087,   15.0500002,           8.
   1088,   15.1400003,          8.5
   1089,   15.2299995,           9.
   1090,   15.3199997,          9.5
   1091,   15.4099998,          10.
   1092,   14.4933329,           6.
   1093,   14.5866671,          6.5
   1094,   14.6800003,           7.
   1095,   14.7733335,          7.5
   1096,   14.8666668,           8.
   1097,        14.96,          8.5
   1098,   15.0533333,           9.
   1099,   15.1466665,          9.5
   1100,   15.2399998,          10.
   1101,   14.2966671,           6.
   1102,   14.3933334,          6.5
   1103,   14.4899998,           7.
   1104,   14.5866671,          7.5
   1105,   14.6833334,           8.
   1106,   14.7799997,          8.5
   1107,    14.876667,           9.
   1108,   14.9733334,          9.5
   1109,   15.0699997,          10.
   1110,   14.1000004,           6.
   1111,   14.1999998,          6.5
   1112,   14.3000002,           7.
   1113,   14.3999996,          7.5
   1114,         14.5,           8.
   1115,   14.6000004,          8.5
   1116,   14.6999998,           9.
   1117,   14.8000002,          9.5
   1118,   14.8999996,          10.
   1119,   13.9033337,           6.
   1120,   14.0066671,          6.5
   1121,   14.1099997,           7.
   1122,   14.2133331,          7.5
   1123,   14.3166666,           8.
   1124,   14.4200001,          8.5
   1125,   14.5233335,           9.
   1126,    14.626667,          9.5
   1127,   14.7299995,          10.
   1128,   13.7066669,           6.
   1129,   13.8133335,          6.5
   1130,   13.9200001,           7.
   1131,   14.0266666,          7.5
   1132,   14.1333332,           8.
   1133,   14.2399998,          8.5
   1134,   14.3466663,           9.
   1135,   14.4533329,          9.5
   1136,   14.5600004,          10.
   1137,   13.5100002,           6.
   1138,   13.6199999,          6.5
   1139,   13.7299995,           7.
   1140,   13.8400002,          7.5
   1141,   13.9499998,           8.
   1142,   14.0600004,          8.5
   1143,   14.1700001,           9.
   1144,   14.2799997,          9.5
   1145,   14.3900003,          10.
   1146,   13.3133335,           6.
   1147,   13.4266663,          6.5
   1148,        13.54,           7.
   1149,   13.6533337,          7.5
   1150,   13.7666664,           8.
   1151,   13.8800001,          8.5
   1152,   13.9933329,           9.
   1153,   14.1066666,          9.5
   1154,   14.2200003,          10.
   1155,   13.1166668,           6.
   1156,   13.2333336,          6.5
   1157,   13.3500004,           7.
   1158,   13.4666662,          7.5
   1159,    13.583333,           8.
   1160,   13.6999998,          8.5
   1161,   13.8166666,           9.
   1162,   13.9333334,          9.5
   1163,   14.0500002,          10.
   1164,   12.9200001,           6.
   1165,        13.04,          6.5
   1166,   13.1599998,           7.
   1167,   13.2799997,          7.5
   1168,   13.3999996,           8.
   1169,   13.5200005,          8.5
   1170,   13.6400003,           9.
   1171,   13.7600002,          9.5
   1172,   13.8800001,          10.
   1173,   12.7233334,           6.
   1174,   12.8466663,          6.5
   1175,   12.9700003,           7.
   1176,   13.0933332,          7.5
   1177,   13.2166662,           8.
   1178,   13.3400002,          8.5
   1179,   13.4633331,           9.
   1180,   13.5866671,          9.5
   1181,        13.71,          10.
   1182,   12.5266666,           6.
   1183,   12.6533337,          6.5
   1184,   12.7799997,           7.
   1185,   12.9066668,          7.5
   1186,   13.0333338,           8.
   1187,   13.1599998,          8.5
   1188,   13.2866669,           9.
   1189,   13.4133329,          9.5
   1190,        13.54,          10.
   1191,   12.3299999,           6.
   1192,        12.46,          6.5
   1193,   12.5900002,           7.
   1194,   12.7200003,          7.5
   1195,   12.8500004,           8.
   1196,   12.9799995,          8.5
   1197,   13.1099997,           9.
   1198,   13.2399998,          9.5
   1199,   13.3699999,          10.
   1200,   12.1333332,           6.
   1201,   12.2666664,          6.5
   1202,   12.3999996,           7.
   1203,   12.5333338,          7.5
   1204,    12.666667,           8.
   1205,   12.8000002,          8.5
   1206,   12.9333334,           9.
   1207,   13.0666666,          9.5
   1208,   13.1999998,          10.
   1209,   12.0266666,           6.
   1210,   12.1533337,          6.5
   1211,   12.2799997,           7.
   1212,   12.4066668,          7.5
   1213,   12.5333338,           8.
   1214,   12.6599998,          8.5
   1215,   12.7866669,           9.
   1216,   12.9133329,          9.5
   1217,        13.04,          10.
   1218,   11.9200001,           6.
   1219,        12.04,          6.5
   1220,   12.1599998,           7.
   1221,   12.2799997,          7.5
   1222,   12.3999996,           8.
   1223,   12.5200005,          8.5
   1224,   12.6400003,           9.
   1225,   12.7600002,          9.5
   1226,   12.8800001,          10.
   1227,   11.8133335,           6.
   1228,   11.9266663,          6.5
   1229,        12.04,           7.
   1230,   12.1533337,          7.5
   1231,   12.2666664,           8.
   1232,   12.3800001,          8.5
   1233,   12.4933329,           9.
   1234,   12.6066666,          9.5
   1235,   12.7200003,          10.
   1236,   11.7066669,           6.
   1237,   11.8133335,          6.5
   1238,   11.9200001,           7.
   1239,   12.0266666,          7.5
   1240,   12.1333332,           8.
   1241,   12.2399998,          8.5
   1242,   12.3466663,           9.
   1243,   12.4533329,          9.5
   1244,   12.5600004,          10.
   1245,   11.6000004,           6.
   1246,   11.6999998,          6.5
   1247,   11.8000002,           7.
   1248,   11.8999996,          7.5
   1249,          12.,           8.
   1250,   12.1000004,          8.5
   1251,   12.1999998,           9.
   1252,   12.3000002,          9.5
   1253,   12.3999996,          10.
   1254,   11.4933329,           6.
   1255,   11.5866671,          6.5
   1256,   11.6800003,           7.
   1257,   11.7733335,          7.5
   1258,   11.8666668,           8.
   1259,        11.96,          8.5
   1260,   12.0533333,           9.
   1261,   12.1466665,          9.5
   1262,   12.2399998,          10.
   1263,   11.3866663,           6.
   1264,   11.4733334,          6.5
   1265,   11.5600004,           7.
   1266,   11.6466665,          7.5
   1267,   11.7333336,           8.
   1268,   11.8199997,          8.5
   1269,   11.9066668,           9.
   1270,   11.9933329,          9.5
   1271,   12.0799999,          10.
   1272,   11.2799997,           6.
   1273,   11.3599997,          6.5
   1274,   11.4399996,           7.
   1275,   11.5200005,          7.5
   1276,   11.6000004,           8.
   1277,   11.6800003,          8.5
   1278,   11.7600002,           9.
   1279,   11.8400002,          9.5
   1280,   11.9200001,          10.
   1281,   11.1733332,           6.
   1282,   11.2466669,          6.5
   1283,   11.3199997,           7.
   1284,   11.3933334,          7.5
   1285,   11.4666662,           8.
   1286,        11.54,          8.5
   1287,   11.6133337,           9.
   1288,   11.6866665,          9.5
   1289,   11.7600002,          10.
   1290,   11.0666666,           6.
   1291,   11.1333332,          6.5
   1292,   11.1999998,           7.
   1293,   11.2666664,          7.5
   1294,    11.333333,           8.
   1295,   11.3999996,          8.5
   1296,   11.4666662,           9.
   1297,   11.5333338,          9.5
   1298,   11.6000004,          10.
   1299,        10.96,           6.
   1300,   11.0200005,          6.5
   1301,   11.0799999,           7.
   1302,   11.1400003,          7.5
   1303,   11.1999998,           8.
   1304,   11.2600002,          8.5
   1305,   11.3199997,           9.
   1306,   11.3800001,          9.5
   1307,   11.4399996,          10.
   1308,   10.8533335,           6.
   1309,   10.9066668,          6.5
   1310,        10.96,           7.
   1311,   11.0133333,          7.5
   1312,   11.0666666,           8.
   1313,   11.1199999,          8.5
   1314,   11.1733332,           9.
   1315,   11.2266665,          9.5
   1316,   11.2799997,          10.
   1317,   10.7466669,           6.
   1318,   10.7933331,          6.5
   1319,   10.8400002,           7.
   1320,   10.8866663,          7.5
   1321,   10.9333334,           8.
   1322,   10.9799995,          8.5
   1323,   11.0266666,           9.
   1324,   11.0733337,          9.5
   1325,   11.1199999,          10.
   1326,   10.6400003,           6.
   1327,   10.6800003,          6.5
   1328,   10.7200003,           7.
   1329,   10.7600002,          7.5
   1330,   10.8000002,           8.
   1331,   10.8400002,          8.5
   1332,   10.8800001,           9.
   1333,   10.9200001,          9.5
   1334,        10.96,          10.
   1335,   10.5333338,           6.
   1336,   10.5666666,          6.5
   1337,   10.6000004,           7.
   1338,   10.6333332,          7.5
   1339,    10.666667,           8.
   1340,   10.6999998,          8.5
   1341,   10.7333336,           9.
   1342,   10.7666664,          9.5
   1343,   10.8000002,          10.
   1344,   10.4266663,           6.
   1345,   10.4533329,          6.5
   1346,   10.4799995,           7.
   1347,   10.5066671,          7.5
   1348,   10.5333338,           8.
   1349,   10.5600004,          8.5
   1350,   10.5866671,           9.
   1351,   10.6133337,          9.5
   1352,   10.6400003,          10.
   1353,   10.3199997,           6.
   1354,   10.3400002,          6.5
   1355,   10.3599997,           7.
   1356,   10.3800001,          7.5
   1357,   10.3999996,           8.
   1358,   10.4200001,          8.5
   1359,   10.4399996,           9.
   1360,        10.46,          9.5
   1361,   10.4799995,          10.
   1362,   10.2133331,           6.
   1363,   10.2266665,          6.5
   1364,   10.2399998,           7.
   1365,   10.2533331,          7.5
   1366,   10.2666664,           8.
   1367,   10.2799997,          8.5
   1368,   10.2933331,           9.
   1369,   10.3066664,          9.5
   1370,   10.3199997,          10.
   1371,   10.1066666,           6.
   1372,   10.1133337,          6.5
   1373,   10.1199999,           7.
   1374,    10.126667,          7.5
   1375,   10.1333332,           8.
   1376,   10.1400003,          8.5
   1377,   10.1466665,           9.
   1378,   10.1533337,          9.5
   1379,   10.1599998,          10.
   1380,          10.,           6.
   1381,          10.,          6.5
   1382,          10.,           7.
   1383,          10.,          7.5
   1384,          10.,           8.
   1385,          10.,          8.5
   1386,          10.,           9.
   1387,          10.,          9.5
   1388,          10.,          10.
   1389,   9.89333344,           6.
   1390,    9.8866663,          6.5
   1391,   9.88000011,           7.
   1392,   9.87333298,          7.5
   1393,   9.86666679,           8.
   1394,   9.85999966,          8.5
   1395,   9.85333347,           9.
   1396,   9.84666634,          9.5
   1397,   9.84000015,          10.
   1398,   9.78666687,           6.
   1399,   9.77333355,          6.5
   1400,   9.76000023,           7.
   1401,   9.74666691,          7.5
   1402,   9.73333359,           8.
   1403,   9.72000027,          8.5
   1404,   9.70666695,           9.
   1405,   9.69333363,          9.5
   1406,   9.68000031,          10.
   1407,   9.68000031,           6.
   1408,   9.65999985,          6.5
   1409,   9.64000034,           7.
   1410,   9.61999989,          7.5
   1411,   9.60000038,           8.
   1412,   9.57999992,          8.5
   1413,   9.56000042,           9.
   1414,   9.53999996,          9.5
   1415,   9.52000046,          10.
   1416,   9.57333374,           6.
   1417,    9.5466671,          6.5
   1418,   9.52000046,           7.
   1419,   9.49333286,          7.5
   1420,   9.46666622,           8.
   1421,   9.43999958,          8.5
   1422,   9.41333294,           9.
   1423,    9.3866663,          9.5
   1424,   9.35999966,          10.
   1425,   9.46666622,           6.
   1426,    9.4333334,          6.5
   1427,   9.39999962,           7.
   1428,   9.36666679,          7.5
   1429,   9.33333302,           8.
   1430,   9.30000019,          8.5
   1431,   9.26666641,           9.
   1432,   9.23333359,          9.5
   1433,   9.19999981,          10.
   1434,   9.35999966,           6.
   1435,   9.31999969,          6.5
   1436,   9.27999973,           7.
   1437,   9.23999977,          7.5
   1438,   9.19999981,           8.
   1439,   9.15999985,          8.5
   1440,   9.11999989,           9.
   1441,   9.07999992,          9.5
   1442,   9.03999996,          10.
   1443,   9.25333309,           6.
   1444,   9.20666695,          6.5
   1445,   9.15999985,           7.
   1446,    9.1133337,          7.5
   1447,    9.0666666,           8.
   1448,   9.02000046,          8.5
   1449,   8.97333336,           9.
   1450,   8.92666626,          9.5
   1451,   8.88000011,          10.
   1452,   9.14666653,           6.
   1453,   9.09333324,          6.5
   1454,   9.03999996,           7.
   1455,   8.98666668,          7.5
   1456,    8.9333334,           8.
   1457,   8.88000011,          8.5
   1458,   8.82666683,           9.
   1459,   8.77333355,          9.5
   1460,   8.72000027,          10.
   1461,   9.03999996,           6.
   1462,   8.97999954,          6.5
   1463,   8.92000008,           7.
   1464,   8.85999966,          7.5
   1465,   8.80000019,           8.
   1466,   8.73999977,          8.5
   1467,   8.68000031,           9.
   1468,   8.61999989,          9.5
   1469,   8.56000042,          10.
   1470,    8.9333334,           6.
   1471,   8.86666679,          6.5
   1472,   8.80000019,           7.
   1473,   8.73333359,          7.5
   1474,   8.66666698,           8.
   1475,   8.60000038,          8.5
   1476,   8.53333378,           9.
   1477,   8.46666622,          9.5
   1478,   8.39999962,          10.
   1479,   8.82666683,           6.
   1480,   8.75333309,          6.5
   1481,   8.68000031,           7.
   1482,   8.60666656,          7.5
   1483,   8.53333378,           8.
   1484,   8.46000004,          8.5
   1485,    8.3866663,           9.
   1486,   8.31333351,          9.5
   1487,   8.23999977,          10.
   1488,   8.72000027,           6.
   1489,   8.64000034,          6.5
   1490,   8.56000042,           7.
   1491,   8.47999954,          7.5
   1492,   8.39999962,           8.
   1493,   8.31999969,          8.5
   1494,   8.23999977,           9.
   1495,   8.15999985,          9.5
   1496,   8.07999992,          10.
   1497,    8.6133337,           6.
   1498,   8.52666664,          6.5
   1499,   8.43999958,           7.
   1500,   8.35333347,          7.5
   1501,   8.26666641,           8.
   1502,   8.18000031,          8.5
   1503,   8.09333324,           9.
   1504,   8.00666714,          9.5
   1505,   7.92000008,          10.
   1506,   8.50666714,           6.
   1507,   8.41333294,          6.5
   1508,   8.31999969,           7.
   1509,   8.22666645,          7.5
   1510,   8.13333321,           8.
   1511,   8.03999996,          8.5
   1512,   7.94666672,           9.
   1513,   7.85333347,          9.5
   1514,   7.76000023,          10.
   1515,   8.39999962,           6.
   1516,   8.30000019,          6.5
   1517,   8.19999981,           7.
   1518,   8.10000038,          7.5
   1519,           8.,           8.
   1520,    7.9000001,          8.5
   1521,   7.80000019,           9.
   1522,   7.69999981,          9.5
   1523,    7.5999999,          10.
   1524,   8.29333305,           6.
   1525,   8.18666649,          6.5
   1526,   8.07999992,           7.
   1527,   7.97333336,          7.5
   1528,   7.86666679,           8.
   1529,   7.76000023,          8.5
   1530,   7.65333319,           9.
   1531,   7.54666662,          9.5
   1532,   7.44000006,          10.
   1533,   8.18666649,           6.
   1534,   8.07333374,          6.5
   1535,   7.96000004,           7.
   1536,   7.84666681,          7.5
   1537,   7.73333311,           8.
   1538,   7.61999989,          8.5
   1539,   7.50666666,           9.
   1540,   7.39333344,          9.5
   1541,   7.28000021,          10.
   1542,   8.07999992,           6.
   1543,   7.96000004,          6.5
   1544,   7.84000015,           7.
   1545,   7.71999979,          7.5
   1546,    7.5999999,           8.
   1547,   7.48000002,          8.5
   1548,   7.36000013,           9.
   1549,   7.23999977,          9.5
   1550,   7.11999989,          10.
   1551,   7.97333336,           6.
   1552,   7.84666681,          6.5
   1553,   7.71999979,           7.
   1554,   7.59333324,          7.5
   1555,    7.4666667,           8.
   1556,   7.34000015,          8.5
   1557,   7.21333313,           9.
   1558,   7.08666658,          9.5
   1559,   6.96000004,          10.
   1560,   7.86666679,           6.
   1561,   7.73333311,          6.5
   1562,    7.5999999,           7.
   1563,    7.4666667,          7.5
   1564,   7.33333349,           8.
   1565,   7.19999981,          8.5
   1566,    7.0666666,           9.
   1567,    6.9333334,          9.5
   1568,   6.80000019,          10.
   1569,   7.67000008,           6.
   1570,   7.53999996,          6.5
   1571,   7.40999985,           7.
   1572,   7.28000021,          7.5
   1573,    7.1500001,           8.
   1574,   7.01999998,          8.5
   1575,   6.88999987,           9.
   1576,   6.76000023,          9.5
   1577,   6.63000011,          10.
   1578,   7.47333336,           6.
   1579,   7.34666681,          6.5
   1580,   7.21999979,           7.
   1581,   7.09333324,          7.5
   1582,    6.9666667,           8.
   1583,   6.84000015,          8.5
   1584,   6.71333313,           9.
   1585,   6.58666658,          9.5
   1586,   6.46000004,          10.
   1587,   7.27666664,           6.
   1588,   7.15333319,          6.5
   1589,   7.03000021,           7.
   1590,   6.90666676,          7.5
   1591,    6.7833333,           8.
   1592,   6.65999985,          8.5
   1593,   6.53666687,           9.
   1594,   6.41333342,          9.5
   1595,   6.28999996,          10.
   1596,   7.07999992,           6.
   1597,   6.96000004,          6.5
   1598,   6.84000015,           7.
   1599,   6.71999979,          7.5
   1600,    6.5999999,           8.
   1601,   6.48000002,          8.5
   1602,   6.36000013,           9.
   1603,   6.23999977,          9.5
   1604,   6.11999989,          10.
   1605,   6.88333321,           6.
   1606,   6.76666689,          6.5
   1607,    6.6500001,           7.
   1608,    6.5333333,          7.5
   1609,   6.41666651,           8.
   1610,   6.30000019,          8.5
   1611,    6.1833334,           9.
   1612,    6.0666666,          9.5
   1613,   5.94999981,          10.
   1614,   6.68666649,           6.
   1615,   6.57333326,          6.5
   1616,   6.46000004,           7.
   1617,   6.34666681,          7.5
   1618,   6.23333311,           8.
   1619,   6.11999989,          8.5
   1620,   6.00666666,           9.
   1621,   5.89333344,          9.5
   1622,   5.78000021,          10.
   1623,   6.48999977,           6.
   1624,   6.38000011,          6.5
   1625,   6.26999998,           7.
   1626,   6.15999985,          7.5
   1627,   6.05000019,           8.
   1628,   5.94000006,          8.5
   1629,   5.82999992,           9.
   1630,   5.71999979,          9.5
   1631,   5.61000013,          10.
   1632,   6.29333353,           6.
   1633,   6.18666649,          6.5
   1634,   6.07999992,           7.
   1635,   5.97333336,          7.5
   1636,   5.86666679,           8.
   1637,   5.76000023,          8.5
   1638,   5.65333319,           9.
   1639,   5.54666662,          9.5
   1640,   5.44000006,          10.
   1641,   6.09666681,           6.
   1642,   5.99333334,          6.5
   1643,   5.88999987,           7.
   1644,   5.78666687,          7.5
   1645,    5.6833334,           8.
   1646,   5.57999992,          8.5
   1647,   5.47666645,           9.
   1648,   5.37333345,          9.5
   1649,   5.26999998,          10.
   1650,    5.9000001,           6.
   1651,   5.80000019,          6.5
   1652,   5.69999981,           7.
   1653,    5.5999999,          7.5
   1654,          5.5,           8.
   1655,    5.4000001,          8.5
   1656,   5.30000019,           9.
   1657,   5.19999981,          9.5
   1658,    5.0999999,          10.
   1659,   5.70333338,           6.
   1660,   5.60666656,          6.5
   1661,   5.51000023,           7.
   1662,   5.41333342,          7.5
   1663,    5.3166666,           8.
   1664,   5.21999979,          8.5
   1665,   5.12333345,           9.
   1666,   5.02666664,          9.5
   1667,   4.92999983,          10.
   1668,   5.50666666,           6.
   1669,   5.41333342,          6.5
   1670,   5.32000017,           7.
   1671,   5.22666645,          7.5
   1672,   5.13333321,           8.
   1673,   5.03999996,          8.5
   1674,   4.94666672,           9.
   1675,   4.85333347,          9.5
   1676,   4.76000023,          10.
   1677,   5.30999994,           6.
   1678,   5.21999979,          6.5
   1679,   5.13000011,           7.
   1680,   5.03999996,          7.5
   1681,   4.94999981,           8.
   1682,   4.86000013,          8.5
   1683,   4.76999998,           9.
   1684,   4.67999983,          9.5
   1685,   4.59000015,          10.
   1686,   5.11333323,           6.
   1687,   5.02666664,          6.5
   1688,   4.94000006,           7.
   1689,   4.85333347,          7.5
   1690,   4.76666689,           8.
   1691,   4.67999983,          8.5
   1692,   4.59333324,           9.
   1693,   4.50666666,          9.5
   1694,   4.42000008,          10.
   1695,   4.91666651,           6.
   1696,   4.83333349,          6.5
   1697,         4.75,           7.
   1698,   4.66666651,          7.5
   1699,   4.58333349,           8.
   1700,          4.5,          8.5
   1701,   4.41666651,           9.
   1702,   4.33333349,          9.5
   1703,         4.25,          10.
   1704,   4.71999979,           6.
   1705,   4.63999987,          6.5
   1706,   4.55999994,           7.
   1707,   4.48000002,          7.5
   1708,    4.4000001,           8.
   1709,   4.32000017,          8.5
   1710,   4.23999977,           9.
   1711,   4.15999985,          9.5
   1712,   4.07999992,          10.
   1713,   4.52333355,           6.
   1714,   4.44666672,          6.5
   1715,   4.36999989,           7.
   1716,   4.29333353,          7.5
   1717,    4.2166667,           8.
   1718,   4.13999987,          8.5
   1719,   4.06333351,           9.
   1720,   3.98666668,          9.5
   1721,   3.91000009,          10.
   1722,   4.32666683,           6.
   1723,   4.25333357,          6.5
   1724,   4.17999983,           7.
   1725,   4.10666656,          7.5
   1726,    4.0333333,           8.
   1727,   3.96000004,          8.5
   1728,   3.88666677,           9.
   1729,   3.81333327,          9.5
   1730,   3.74000001,          10.
   1731,   4.13000011,           6.
   1732,   4.05999994,          6.5
   1733,   3.99000001,           7.
   1734,   3.92000008,          7.5
   1735,    3.8499999,           8.
   1736,   3.77999997,          8.5
   1737,   3.71000004,           9.
   1738,    3.6400001,          9.5
   1739,   3.56999993,          10.
   1740,    3.9333334,           6.
   1741,   3.86666656,          6.5
   1742,   3.79999995,           7.
   1743,   3.73333335,          7.5
   1744,   3.66666675,           8.
   1745,    3.5999999,          8.5
   1746,    3.5333333,           9.
   1747,    3.4666667,          9.5
   1748,    3.4000001,          10.
   1749,   3.73666668,           6.
   1750,   3.67333341,          6.5
   1751,    3.6099999,           7.
   1752,   3.54666662,          7.5
   1753,   3.48333335,           8.
   1754,   3.42000008,          8.5
   1755,   3.35666656,           9.
   1756,   3.29333329,          9.5
   1757,   3.23000002,          10.
   1758,   3.53999996,           6.
   1759,   3.48000002,          6.5
   1760,   3.42000008,           7.
   1761,    3.3599999,          7.5
   1762,   3.29999995,           8.
   1763,   3.24000001,          8.5
   1764,   3.18000007,           9.
   1765,   3.11999989,          9.5
   1766,   3.05999994,          10.
   1767,   3.34333324,           6.
   1768,   3.28666663,          6.5
   1769,   3.23000002,           7.
   1770,   3.17333341,          7.5
   1771,   3.11666656,           8.
   1772,   3.05999994,          8.5
   1773,   3.00333333,           9.
   1774,   2.94666672,          9.5
   1775,    2.8900001,          10.
   1776,   3.14666677,           6.
   1777,   3.09333324,          6.5
   1778,   3.03999996,           7.
   1779,   2.98666668,          7.5
   1780,    2.9333334,           8.
   1781,   2.88000011,          8.5
   1782,   2.82666659,           9.
   1783,   2.77333331,          9.5
   1784,   2.72000003,          10.
   1785,   2.95000005,           6.
   1786,    2.9000001,          6.5
   1787,    2.8499999,           7.
   1788,   2.79999995,          7.5
   1789,         2.75,           8.
   1790,   2.70000005,          8.5
   1791,    2.6500001,           9.
   1792,    2.5999999,          9.5
   1793,   2.54999995,          10.
   1794,   2.75333333,           6.
   1795,   2.70666671,          6.5
   1796,   2.66000009,           7.
   1797,   2.61333323,          7.5
   1798,    2.5666666,           8.
   1799,   2.51999998,          8.5
   1800,   2.47333336,           9.
   1801,   2.42666674,          9.5
   1802,   2.38000011,          10.
   1803,   2.55666661,           6.
   1804,   2.51333332,          6.5
   1805,   2.47000003,           7.
   1806,   2.42666674,          7.5
   1807,   2.38333344,           8.
   1808,   2.33999991,          8.5
   1809,   2.29666662,           9.
   1810,   2.25333333,          9.5
   1811,   2.21000004,          10.
   1812,    2.3599999,           6.
   1813,   2.31999993,          6.5
   1814,   2.27999997,           7.
   1815,   2.24000001,          7.5
   1816,   2.20000005,           8.
   1817,   2.16000009,          8.5
   1818,   2.11999989,           9.
   1819,   2.07999992,          9.5
   1820,   2.03999996,          10.
   1821,   2.16333342,           6.
   1822,   2.12666678,          6.5
   1823,   2.08999991,           7.
   1824,   2.05333328,          7.5
   1825,   2.01666665,           8.
   1826,   1.98000002,          8.5
   1827,   1.94333339,           9.
   1828,   1.90666664,          9.5
   1829,         1.87,          10.
   1830,    1.9666667,           6.
   1831,   1.93333328,          6.5
   1832,   1.89999998,           7.
   1833,   1.86666667,          7.5
   1834,   1.83333337,           8.
   1835,   1.79999995,          8.5
   1836,   1.76666665,           9.
   1837,   1.73333335,          9.5
   1838,   1.70000005,          10.
   1839,   1.76999998,           6.
   1840,   1.74000001,          6.5
   1841,   1.71000004,           7.
   1842,   1.67999995,          7.5
   1843,   1.64999998,           8.
   1844,         1.62,          8.5
   1845,   1.59000003,           9.
   1846,   1.55999994,          9.5
   1847,   1.52999997,          10.
   1848,   1.57333338,           6.
   1849,   1.54666662,          6.5
   1850,   1.51999998,           7.
   1851,   1.49333334,          7.5
   1852,    1.4666667,           8.
   1853,   1.44000006,          8.5
   1854,    1.4133333,           9.
   1855,   1.38666666,          9.5
   1856,   1.36000001,          10.
   1857,   1.37666667,           6.
   1858,   1.35333335,          6.5
   1859,   1.33000004,           7.
   1860,   1.30666661,          7.5
   1861,    1.2833333,           8.
   1862,   1.25999999,          8.5
   1863,   1.23666668,           9.
   1864,   1.21333337,          9.5
   1865,   1.19000006,          10.
   1866,   1.17999995,           6.
   1867,   1.15999997,          6.5
   1868,   1.13999999,           7.
   1869,         1.12,          7.5
   1870,   1.10000002,           8.
   1871,   1.08000004,          8.5
   1872,   1.05999994,           9.
   1873,   1.03999996,          9.5
   1874,   1.01999998,          10.
   1875,  0.983333349,           6.
   1876,  0.966666639,          6.5
   1877,  0.949999988,           7.
   1878,  0.933333337,          7.5
   1879,  0.916666687,           8.
   1880,  0.899999976,          8.5
   1881,  0.883333325,           9.
   1882,  0.866666675,          9.5
   1883,  0.850000024,          10.
   1884,  0.786666691,           6.
   1885,  0.773333311,          6.5
   1886,   0.75999999,           7.
   1887,   0.74666667,          7.5
   1888,  0.733333349,           8.
   1889,  0.720000029,          8.5
   1890,  0.706666648,           9.
   1891,  0.693333328,          9.5
   1892,  0.680000007,          10.
   1893,  0.589999974,           6.
   1894,  0.579999983,          6.5
   1895,  0.569999993,           7.
   1896,  0.560000002,          7.5
   1897,  0.550000012,           8.
   1898,  0.540000021,          8.5
   1899,  0.529999971,           9.
   1900,  0.519999981,          9.5
   1901,   0.50999999,          10.
   1902,  0.393333346,           6.
   1903,  0.386666656,          6.5
   1904,  0.379999995,           7.
   1905,  0.373333335,          7.5
   1906,  0.366666675,           8.
   1907,  0.360000014,          8.5
   1908,  0.353333324,           9.
   1909,  0.346666664,          9.5
   1910,  0.340000004,          10.
   1911,  0.196666673,           6.
   1912,  0.193333328,          6.5
   1913,  0.189999998,           7.
   1914,  0.186666667,          7.5
   1915,  0.183333337,           8.
   1916,  0.180000007,          8.5
   1917,  0.176666662,           9.
   1918,  0.173333332,          9.5
   1919,  0.170000002,          10.
   1920,   8.10000038,    5.4000001
   1921,   8.10000038,   5.30000019
   1922,   8.10000038,   5.19999981
   1923,   8.10000038,    5.0999999
   1924,   8.19999981,    5.4000001
   1925,   8.19999981,   5.30000019
   1926,   8.19999981,   5.19999981
   1927,   8.19999981,    5.0999999
   1928,   8.30000019,    5.4000001
   1929,   8.30000019,   5.30000019
   1930,   8.30000019,   5.19999981
   1931,   8.30000019,    5.0999999
   1932,   8.39999962,    5.4000001
   1933,   8.39999962,   5.30000019
   1934,   8.39999962,   5.19999981
   1935,   8.39999962,    5.0999999
   1936,          8.5,    5.4000001
   1937,          8.5,   5.30000019
   1938,          8.5,   5.19999981
   1939,          8.5,    5.0999999
   1940,   8.60000038,    5.4000001
   1941,   8.60000038,   5.30000019
   1942,   8.60000038,   5.19999981
   1943,   8.60000038,    5.0999999
   1944,   8.69999981,    5.4000001
   1945,   8.69999981,   5.30000019
   1946,   8.69999981,   5.19999981
   1947,   8.69999981,    5.0999999
   1948,   8.80000019,    5.4000001
   1949,   8.80000019,   5.30000019
   1950,   8.80000019,   5.19999981
   1951,   8.80000019,    5.0999999
   1952,   8.89999962,    5.4000001
   1953,   8.89999962,   5.30000019
   1954,   8.89999962,   5.19999981
   1955,   8.89999962,    5.0999999
   1956,           9.,    5.4000001
   1957,           9.,   5.30000019
   1958,           9.,   5.19999981
   1959,           9.,    5.0999999
   1960,   9.10000038,    5.4000001
   1961,   9.10000038,   5.30000019
   1962,   9.10000038,   5.19999981
   1963,   9.10000038,    5.0999999
   1964,   9.19999981,    5.4000001
   1965,   9.19999981,   5.30000019
   1966,   9.19999981,   5.19999981
   1967,   9.19999981,    5.0999999
   1968,   9.30000019,    5.4000001
   1969,   9.30000019,   5.30000019
   1970,   9.30000019,   5.19999981
   1971,   9.30000019,    5.0999999
   1972,   9.39999962,    5.4000001
   1973,   9.39999962,   5.30000019
   1974,   9.39999962,   5.19999981
   1975,   9.39999962,    5.0999999
   1976,          9.5,    5.4000001
   1977,          9.5,   5.30000019
   1978,          9.5,   5.19999981
   1979,          9.5,    5.0999999
   1980,   9.60000038,    5.4000001
   1981,   9.60000038,   5.30000019
   1982,   9.60000038,   5.19999981
   1983,   9.60000038,    5.0999999
   1984,   9.69999981,    5.4000001
   1985,   9.69999981,   5.30000019
   1986,   9.69999981,   5.19999981
   1987,   9.69999981,    5.0999999
   1988,   9.80000019,    5.4000001
   1989,   9.80000019,   5.30000019
   1990,   9.80000019,   5.19999981
   1991,   9.80000019,    5.0999999
   1992,   9.89999962,    5.4000001
   1993,   9.89999962,   5.30000019
   1994,   9.89999962,   5.19999981
   1995,   9.89999962,    5.0999999
   1996,          10.,    5.4000001
   1997,          10.,   5.30000019
   1998,          10.,   5.19999981
   1999,          10.,    5.0999999
   2000,   10.1000004,    5.4000001
   2001,   10.1000004,   5.30000019
   2002,   10.1000004,   5.19999981
   2003,   10.1000004,    5.0999999
   2004,   10.1999998,    5.4000001
   2005,   10.1999998,   5.30000019
   2006,   10.1999998,   5.19999981
   2007,   10.1999998,    5.0999999
   2008,   10.3000002,    5.4000001
   2009,   10.3000002,   5.30000019
   2010,   10.3000002,   5.19999981
   2011,   10.3000002,    5.0999999
   2012,   10.3999996,    5.4000001
   2013,   10.3999996,   5.30000019
   2014,   10.3999996,   5.19999981
   2015,   10.3999996,    5.0999999
   2016,         10.5,    5.4000001
   2017,         10.5,   5.30000019
   2018,         10.5,   5.19999981
   2019,         10.5,    5.0999999
   2020,   10.6000004,    5.4000001
   2021,   10.6000004,   5.30000019
   2022,   10.6000004,   5.19999981
   2023,   10.6000004,    5.0999999
   2024,   10.6999998,    5.4000001
   2025,   10.6999998,   5.30000019
   2026,   10.6999998,   5.19999981
   2027,   10.6999998,    5.0999999
   2028,   10.8000002,    5.4000001
   2029,   10.8000002,   5.30000019
   2030,   10.8000002,   5.19999981
   2031,   10.8000002,    5.0999999
   2032,   10.8999996,    5.4000001
   2033,   10.8999996,   5.30000019
   2034,   10.8999996,   5.19999981
   2035,   10.8999996,    5.0999999
   2036,          11.,    5.4000001
   2037,          11.,   5.30000019
   2038,          11.,   5.19999981
   2039,          11.,    5.0999999
   2040,   11.1000004,    5.4000001
   2041,   11.1000004,   5.30000019
   2042,   11.1000004,   5.19999981
   2043,   11.1000004,    5.0999999
   2044,   11.1999998,    5.4000001
   2045,   11.1999998,   5.30000019
   2046,   11.1999998,   5.19999981
   2047,   11.1999998,    5.0999999
   2048,   11.3000002,    5.4000001
   2049,   11.3000002,   5.30000019
   2050,   11.3000002,   5.19999981
   2051,   11.3000002,    5.0999999
   2052,   11.3999996,    5.4000001
   2053,   11.3999996,   5.30000019
   2054,   11.3999996,   5.19999981
   2055,   11.3999996,    5.0999999
   2056,         11.5,    5.4000001
   2057,         11.5,   5.30000019
   2058,         11.5,   5.19999981
   2059,         11.5,    5.0999999
   2060,   11.6000004,    5.4000001
   2061,   11.6000004,   5.30000019
   2062,   11.6000004,   5.19999981
   2063,   11.6000004,    5.0999999
   2064,   11.6999998,    5.4000001
   2065,   11.6999998,   5.30000019
   2066,   11.6999998,   5.19999981
   2067,   11.6999998,    5.0999999
   2068,   11.8000002,    5.4000001
   2069,   11.8000002,   5.30000019
   2070,   11.8000002,   5.19999981
   2071,   11.8000002,    5.0999999
   2072,   11.8999996,    5.4000001
   2073,   11.8999996,   5.30000019
   2074,   11.8999996,   5.19999981
   2075,   11.8999996,    5.0999999
   2076,   19.8033333,          4.5
   2077,   19.6066666,          4.5
   2078,   19.4099998,          4.5
   2079,   19.2133331,          4.5
   2080,   19.0166664,          4.5
   2081,   18.8199997,          4.5
   2082,    18.623333,          4.5
   2083,   18.4266663,          4.5
   2084,   18.2299995,          4.5
   2085,   18.0333328,          4.5
   2086,   17.8366661,          4.5
   2087,   17.6399994,          4.5
   2088,   17.4433327,          4.5
   2089,    17.246666,          4.5
   2090,   17.0499992,          4.5
   2091,   16.8533325,          4.5
   2092,   16.6566658,          4.5
   2093,   16.4599991,          4.5
   2094,   16.2633343,          4.5
   2095,   16.0666676,          4.5
   2096,   15.8699999,          4.5
   2097,   15.6733332,          4.5
   2098,   15.4766665,          4.5
   2099,   15.2799997,          4.5
   2100,    15.083333,          4.5
   2101,   14.8866663,          4.5
   2102,   14.6899996,          4.5
   2103,   14.4933329,          4.5
   2104,   14.2966671,          4.5
   2105,   14.1000004,          4.5
   2106,   13.9033337,          4.5
   2107,   13.7066669,          4.5
   2108,   13.5100002,          4.5
   2109,   13.3133335,          4.5
   2110,   13.1166668,          4.5
   2111,   12.9200001,          4.5
   2112,   12.7233334,          4.5
   2113,   12.5266666,          4.5
   2114,   12.3299999,          4.5
   2115,   12.1333332,          4.5
   2116,   12.0266666,          4.5
   2117,   11.9200001,          4.5
   2118,   11.8133335,          4.5
   2119,   11.7066669,          4.5
   2120,   11.6000004,          4.5
   2121,   11.4933329,          4.5
   2122,   11.3866663,          4.5
   2123,   11.2799997,          4.5
   2124,   11.1733332,          4.5
   2125,   11.0666666,          4.5
   2126,        10.96,          4.5
   2127,   10.8533335,          4.5
   2128,   10.7466669,          4.5
   2129,   10.6400003,          4.5
   2130,   10.5333338,          4.5
   2131,   10.4266663,          4.5
   2132,   10.3199997,          4.5
   2133,   10.2133331,          4.5
   2134,   10.1066666,          4.5
   2135,          10.,          4.5
   2136,   9.89333344,          4.5
   2137,   9.78666687,          4.5
   2138,   9.68000031,          4.5
   2139,   9.57333374,          4.5
   2140,   9.46666622,          4.5
   2141,   9.35999966,          4.5
   2142,   9.25333309,          4.5
   2143,   9.14666653,          4.5
   2144,   9.03999996,          4.5
   2145,    8.9333334,          4.5
   2146,   8.82666683,          4.5
   2147,   8.72000027,          4.5
   2148,    8.6133337,          4.5
   2149,   8.50666714,          4.5
   2150,   8.39999962,          4.5
   2151,   8.29333305,          4.5
   2152,   8.18666649,          4.5
   2153,   8.07999992,          4.5
   2154,   7.97333336,          4.5
   2155,   7.86666679,          4.5
   2156,   7.67000008,          4.5
   2157,   7.47333336,          4.5
   2158,   7.27666664,          4.5
   2159,   7.07999992,          4.5
   2160,   6.88333321,          4.5
   2161,   6.68666649,          4.5
   2162,   6.48999977,          4.5
   2163,   6.29333353,          4.5
   2164,   6.09666681,          4.5
   2165,    5.9000001,          4.5
   2166,   5.70333338,          4.5
   2167,   5.50666666,          4.5
   2168,   5.30999994,          4.5
   2169,   5.11333323,          4.5
   2170,   4.91666651,          4.5
   2171,   4.71999979,          4.5
   2172,   4.52333355,          4.5
   2173,   4.32666683,          4.5
   2174,   4.13000011,          4.5
   2175,    3.9333334,          4.5
   2176,   3.73666668,          4.5
   2177,   3.53999996,          4.5
   2178,   3.34333324,          4.5
   2179,   3.14666677,          4.5
   2180,   2.95000005,          4.5
   2181,   2.75333333,          4.5
   2182,   2.55666661,          4.5
   2183,    2.3599999,          4.5
   2184,   2.16333342,          4.5
   2185,    1.9666667,          4.5
   2186,   1.76999998,          4.5
   2187,   1.57333338,          4.5
   2188,   1.37666667,          4.5
   2189,   1.17999995,          4.5
   2190,  0.983333349,          4.5
   2191,  0.786666691,          4.5
   2192,  0.589999974,          4.5
   2193,  0.393333346,          4.5
   2194,  0.196666673,          4.5
   2195,   19.8066673,           4.
   2196,   19.6133327,           4.
   2197,   19.4200001,           4.
   2198,   19.2266674,           4.
   2199,   19.0333328,           4.
   2200,   18.8400002,           4.
   2201,   18.6466675,           4.
   2202,   18.4533329,           4.
   2203,   18.2600002,           4.
   2204,   18.0666676,           4.
   2205,    17.873333,           4.
   2206,   17.6800003,           4.
   2207,   17.4866657,           4.
   2208,   17.2933331,           4.
   2209,   17.1000004,           4.
   2210,   16.9066658,           4.
   2211,   16.7133331,           4.
   2212,   16.5200005,           4.
   2213,   16.3266659,           4.
   2214,   16.1333332,           4.
   2215,   15.9399996,           4.
   2216,   15.7466669,           4.
   2217,   15.5533333,           4.
   2218,   15.3599997,           4.
   2219,    15.166667,           4.
   2220,   14.9733334,           4.
   2221,   14.7799997,           4.
   2222,   14.5866671,           4.
   2223,   14.3933334,           4.
   2224,   14.1999998,           4.
   2225,   14.0066671,           4.
   2226,   13.8133335,           4.
   2227,   13.6199999,           4.
   2228,   13.4266663,           4.
   2229,   13.2333336,           4.
   2230,        13.04,           4.
   2231,   12.8466663,           4.
   2232,   12.6533337,           4.
   2233,        12.46,           4.
   2234,   12.2666664,           4.
   2235,   12.1533337,           4.
   2236,        12.04,           4.
   2237,   11.9266663,           4.
   2238,   11.8133335,           4.
   2239,   11.6999998,           4.
   2240,   11.5866671,           4.
   2241,   11.4733334,           4.
   2242,   11.3599997,           4.
   2243,   11.2466669,           4.
   2244,   11.1333332,           4.
   2245,   11.0200005,           4.
   2246,   10.9066668,           4.
   2247,   10.7933331,           4.
   2248,   10.6800003,           4.
   2249,   10.5666666,           4.
   2250,   10.4533329,           4.
   2251,   10.3400002,           4.
   2252,   10.2266665,           4.
   2253,   10.1133337,           4.
   2254,          10.,           4.
   2255,    9.8866663,           4.
   2256,   9.77333355,           4.
   2257,   9.65999985,           4.
   2258,    9.5466671,           4.
   2259,    9.4333334,           4.
   2260,   9.31999969,           4.
   2261,   9.20666695,           4.
   2262,   9.09333324,           4.
   2263,   8.97999954,           4.
   2264,   8.86666679,           4.
   2265,   8.75333309,           4.
   2266,   8.64000034,           4.
   2267,   8.52666664,           4.
   2268,   8.41333294,           4.
   2269,   8.30000019,           4.
   2270,   8.18666649,           4.
   2271,   8.07333374,           4.
   2272,   7.96000004,           4.
   2273,   7.84666681,           4.
   2274,   7.73333311,           4.
   2275,   7.53999996,           4.
   2276,   7.34666681,           4.
   2277,   7.15333319,           4.
   2278,   6.96000004,           4.
   2279,   6.76666689,           4.
   2280,   6.57333326,           4.
   2281,   6.38000011,           4.
   2282,   6.18666649,           4.
   2283,   5.99333334,           4.
   2284,   5.80000019,           4.
   2285,   5.60666656,           4.
   2286,   5.41333342,           4.
   2287,   5.21999979,           4.
   2288,   5.02666664,           4.
   2289,   4.83333349,           4.
   2290,   4.63999987,           4.
   2291,   4.44666672,           4.
   2292,   4.25333357,           4.
   2293,   4.05999994,           4.
   2294,   3.86666656,           4.
   2295,   3.67333341,           4.
   2296,   3.48000002,           4.
   2297,   3.28666663,           4.
   2298,   3.09333324,           4.
   2299,    2.9000001,           4.
   2300,   2.70666671,           4.
   2301,   2.51333332,           4.
   2302,   2.31999993,           4.
   2303,   2.12666678,           4.
   2304,   1.93333328,           4.
   2305,   1.74000001,           4.
   2306,   1.54666662,           4.
   2307,   1.35333335,           4.
   2308,   1.15999997,           4.
   2309,  0.966666639,           4.
   2310,  0.773333311,           4.
   2311,  0.579999983,           4.
   2312,  0.386666656,           4.
   2313,  0.193333328,           4.
   2314,   19.8099995,          3.5
   2315,   19.6200008,          3.5
   2316,   19.4300003,          3.5
   2317,   19.2399998,          3.5
   2318,   19.0499992,          3.5
   2319,   18.8600006,          3.5
   2320,   18.6700001,          3.5
   2321,   18.4799995,          3.5
   2322,   18.2900009,          3.5
   2323,   18.1000004,          3.5
   2324,   17.9099998,          3.5
   2325,   17.7199993,          3.5
   2326,   17.5300007,          3.5
   2327,   17.3400002,          3.5
   2328,   17.1499996,          3.5
   2329,   16.9599991,          3.5
   2330,   16.7700005,          3.5
   2331,   16.5799999,          3.5
   2332,   16.3899994,          3.5
   2333,   16.2000008,          3.5
   2334,   16.0100002,          3.5
   2335,   15.8199997,          3.5
   2336,   15.6300001,          3.5
   2337,   15.4399996,          3.5
   2338,        15.25,          3.5
   2339,   15.0600004,          3.5
   2340,   14.8699999,          3.5
   2341,   14.6800003,          3.5
   2342,   14.4899998,          3.5
   2343,   14.3000002,          3.5
   2344,   14.1099997,          3.5
   2345,   13.9200001,          3.5
   2346,   13.7299995,          3.5
   2347,        13.54,          3.5
   2348,   13.3500004,          3.5
   2349,   13.1599998,          3.5
   2350,   12.9700003,          3.5
   2351,   12.7799997,          3.5
   2352,   12.5900002,          3.5
   2353,   12.3999996,          3.5
   2354,   12.2799997,          3.5
   2355,   12.1599998,          3.5
   2356,        12.04,          3.5
   2357,   11.9200001,          3.5
   2358,   11.8000002,          3.5
   2359,   11.6800003,          3.5
   2360,   11.5600004,          3.5
   2361,   11.4399996,          3.5
   2362,   11.3199997,          3.5
   2363,   11.1999998,          3.5
   2364,   11.0799999,          3.5
   2365,        10.96,          3.5
   2366,   10.8400002,          3.5
   2367,   10.7200003,          3.5
   2368,   10.6000004,          3.5
   2369,   10.4799995,          3.5
   2370,   10.3599997,          3.5
   2371,   10.2399998,          3.5
   2372,   10.1199999,          3.5
   2373,          10.,          3.5
   2374,   9.88000011,          3.5
   2375,   9.76000023,          3.5
   2376,   9.64000034,          3.5
   2377,   9.52000046,          3.5
   2378,   9.39999962,          3.5
   2379,   9.27999973,          3.5
   2380,   9.15999985,          3.5
   2381,   9.03999996,          3.5
   2382,   8.92000008,          3.5
   2383,   8.80000019,          3.5
   2384,   8.68000031,          3.5
   2385,   8.56000042,          3.5
   2386,   8.43999958,          3.5
   2387,   8.31999969,          3.5
   2388,   8.19999981,          3.5
   2389,   8.07999992,          3.5
   2390,   7.96000004,          3.5
   2391,   7.84000015,          3.5
   2392,   7.71999979,          3.5
   2393,    7.5999999,          3.5
   2394,   7.40999985,          3.5
   2395,   7.21999979,          3.5
   2396,   7.03000021,          3.5
   2397,   6.84000015,          3.5
   2398,    6.6500001,          3.5
   2399,   6.46000004,          3.5
   2400,   6.26999998,          3.5
   2401,   6.07999992,          3.5
   2402,   5.88999987,          3.5
   2403,   5.69999981,          3.5
   2404,   5.51000023,          3.5
   2405,   5.32000017,          3.5
   2406,   5.13000011,          3.5
   2407,   4.94000006,          3.5
   2408,         4.75,          3.5
   2409,   4.55999994,          3.5
   2410,   4.36999989,          3.5
   2411,   4.17999983,          3.5
   2412,   3.99000001,          3.5
   2413,   3.79999995,          3.5
   2414,    3.6099999,          3.5
   2415,   3.42000008,          3.5
   2416,   3.23000002,          3.5
   2417,   3.03999996,          3.5
   2418,    2.8499999,          3.5
   2419,   2.66000009,          3.5
   2420,   2.47000003,          3.5
   2421,   2.27999997,          3.5
   2422,   2.08999991,          3.5
   2423,   1.89999998,          3.5
   2424,   1.71000004,          3.5
   2425,   1.51999998,          3.5
   2426,   1.33000004,          3.5
   2427,   1.13999999,          3.5
   2428,  0.949999988,          3.5
   2429,   0.75999999,          3.5
   2430,  0.569999993,          3.5
   2431,  0.379999995,          3.5
   2432,  0.189999998,          3.5
   2433,   19.8133335,           3.
   2434,    19.626667,           3.
   2435,   19.4400005,           3.
   2436,    19.253334,           3.
   2437,   19.0666676,           3.
   2438,   18.8799992,           3.
   2439,   18.6933327,           3.
   2440,   18.5066662,           3.
   2441,   18.3199997,           3.
   2442,   18.1333332,           3.
   2443,   17.9466667,           3.
   2444,   17.7600002,           3.
   2445,   17.5733337,           3.
   2446,   17.3866673,           3.
   2447,   17.2000008,           3.
   2448,   17.0133343,           3.
   2449,   16.8266659,           3.
   2450,   16.6399994,           3.
   2451,   16.4533329,           3.
   2452,   16.2666664,           3.
   2453,   16.0799999,           3.
   2454,   15.8933334,           3.
   2455,   15.7066669,           3.
   2456,   15.5200005,           3.
   2457,    15.333333,           3.
   2458,   15.1466665,           3.
   2459,        14.96,           3.
   2460,   14.7733335,           3.
   2461,   14.5866671,           3.
   2462,   14.3999996,           3.
   2463,   14.2133331,           3.
   2464,   14.0266666,           3.
   2465,   13.8400002,           3.
   2466,   13.6533337,           3.
   2467,   13.4666662,           3.
   2468,   13.2799997,           3.
   2469,   13.0933332,           3.
   2470,   12.9066668,           3.
   2471,   12.7200003,           3.
   2472,   12.5333338,           3.
   2473,   12.4066668,           3.
   2474,   12.2799997,           3.
   2475,   12.1533337,           3.
   2476,   12.0266666,           3.
   2477,   11.8999996,           3.
   2478,   11.7733335,           3.
   2479,   11.6466665,           3.
   2480,   11.5200005,           3.
   2481,   11.3933334,           3.
   2482,   11.2666664,           3.
   2483,   11.1400003,           3.
   2484,   11.0133333,           3.
   2485,   10.8866663,           3.
   2486,   10.7600002,           3.
   2487,   10.6333332,           3.
   2488,   10.5066671,           3.
   2489,   10.3800001,           3.
   2490,   10.2533331,           3.
   2491,    10.126667,           3.
   2492,          10.,           3.
   2493,   9.87333298,           3.
   2494,   9.74666691,           3.
   2495,   9.61999989,           3.
   2496,   9.49333286,           3.
   2497,   9.36666679,           3.
   2498,   9.23999977,           3.
   2499,    9.1133337,           3.
   2500,   8.98666668,           3.
   2501,   8.85999966,           3.
   2502,   8.73333359,           3.
   2503,   8.60666656,           3.
   2504,   8.47999954,           3.
   2505,   8.35333347,           3.
   2506,   8.22666645,           3.
   2507,   8.10000038,           3.
   2508,   7.97333336,           3.
   2509,   7.84666681,           3.
   2510,   7.71999979,           3.
   2511,   7.59333324,           3.
   2512,    7.4666667,           3.
   2513,   7.28000021,           3.
   2514,   7.09333324,           3.
   2515,   6.90666676,           3.
   2516,   6.71999979,           3.
   2517,    6.5333333,           3.
   2518,   6.34666681,           3.
   2519,   6.15999985,           3.
   2520,   5.97333336,           3.
   2521,   5.78666687,           3.
   2522,    5.5999999,           3.
   2523,   5.41333342,           3.
   2524,   5.22666645,           3.
   2525,   5.03999996,           3.
   2526,   4.85333347,           3.
   2527,   4.66666651,           3.
   2528,   4.48000002,           3.
   2529,   4.29333353,           3.
   2530,   4.10666656,           3.
   2531,   3.92000008,           3.
   2532,   3.73333335,           3.
   2533,   3.54666662,           3.
   2534,    3.3599999,           3.
   2535,   3.17333341,           3.
   2536,   2.98666668,           3.
   2537,   2.79999995,           3.
   2538,   2.61333323,           3.
   2539,   2.42666674,           3.
   2540,   2.24000001,           3.
   2541,   2.05333328,           3.
   2542,   1.86666667,           3.
   2543,   1.67999995,           3.
   2544,   1.49333334,           3.
   2545,   1.30666661,           3.
   2546,         1.12,           3.
   2547,  0.933333337,           3.
   2548,   0.74666667,           3.
   2549,  0.560000002,           3.
   2550,  0.373333335,           3.
   2551,  0.186666667,           3.
   2552,   19.8166676,          2.5
   2553,   19.6333332,          2.5
   2554,   19.4500008,          2.5
   2555,   19.2666664,          2.5
   2556,    19.083334,          2.5
   2557,   18.8999996,          2.5
   2558,   18.7166672,          2.5
   2559,   18.5333328,          2.5
   2560,   18.3500004,          2.5
   2561,    18.166666,          2.5
   2562,   17.9833336,          2.5
   2563,   17.7999992,          2.5
   2564,   17.6166668,          2.5
   2565,   17.4333324,          2.5
   2566,        17.25,          2.5
   2567,   17.0666676,          2.5
   2568,   16.8833332,          2.5
   2569,   16.7000008,          2.5
   2570,   16.5166664,          2.5
   2571,    16.333334,          2.5
   2572,   16.1499996,          2.5
   2573,   15.9666662,          2.5
   2574,   15.7833338,          2.5
   2575,   15.6000004,          2.5
   2576,    15.416667,          2.5
   2577,   15.2333336,          2.5
   2578,   15.0500002,          2.5
   2579,   14.8666668,          2.5
   2580,   14.6833334,          2.5
   2581,         14.5,          2.5
   2582,   14.3166666,          2.5
   2583,   14.1333332,          2.5
   2584,   13.9499998,          2.5
   2585,   13.7666664,          2.5
   2586,    13.583333,          2.5
   2587,   13.3999996,          2.5
   2588,   13.2166662,          2.5
   2589,   13.0333338,          2.5
   2590,   12.8500004,          2.5
   2591,    12.666667,          2.5
   2592,   12.5333338,          2.5
   2593,   12.3999996,          2.5
   2594,   12.2666664,          2.5
   2595,   12.1333332,          2.5
   2596,          12.,          2.5
   2597,   11.8666668,          2.5
   2598,   11.7333336,          2.5
   2599,   11.6000004,          2.5
   2600,   11.4666662,          2.5
   2601,    11.333333,          2.5
   2602,   11.1999998,          2.5
   2603,   11.0666666,          2.5
   2604,   10.9333334,          2.5
   2605,   10.8000002,          2.5
   2606,    10.666667,          2.5
   2607,   10.5333338,          2.5
   2608,   10.3999996,          2.5
   2609,   10.2666664,          2.5
   2610,   10.1333332,          2.5
   2611,          10.,          2.5
   2612,   9.86666679,          2.5
   2613,   9.73333359,          2.5
   2614,   9.60000038,          2.5
   2615,   9.46666622,          2.5
   2616,   9.33333302,          2.5
   2617,   9.19999981,          2.5
   2618,    9.0666666,          2.5
   2619,    8.9333334,          2.5
   2620,   8.80000019,          2.5
   2621,   8.66666698,          2.5
   2622,   8.53333378,          2.5
   2623,   8.39999962,          2.5
   2624,   8.26666641,          2.5
   2625,   8.13333321,          2.5
   2626,           8.,          2.5
   2627,   7.86666679,          2.5
   2628,   7.73333311,          2.5
   2629,    7.5999999,          2.5
   2630,    7.4666667,          2.5
   2631,   7.33333349,          2.5
   2632,    7.1500001,          2.5
   2633,    6.9666667,          2.5
   2634,    6.7833333,          2.5
   2635,    6.5999999,          2.5
   2636,   6.41666651,          2.5
   2637,   6.23333311,          2.5
   2638,   6.05000019,          2.5
   2639,   5.86666679,          2.5
   2640,    5.6833334,          2.5
   2641,          5.5,          2.5
   2642,    5.3166666,          2.5
   2643,   5.13333321,          2.5
   2644,   4.94999981,          2.5
   2645,   4.76666689,          2.5
   2646,   4.58333349,          2.5
   2647,    4.4000001,          2.5
   2648,    4.2166667,          2.5
   2649,    4.0333333,          2.5
   2650,    3.8499999,          2.5
   2651,   3.66666675,          2.5
   2652,   3.48333335,          2.5
   2653,   3.29999995,          2.5
   2654,   3.11666656,          2.5
   2655,    2.9333334,          2.5
   2656,         2.75,          2.5
   2657,    2.5666666,          2.5
   2658,   2.38333344,          2.5
   2659,   2.20000005,          2.5
   2660,   2.01666665,          2.5
   2661,   1.83333337,          2.5
   2662,   1.64999998,          2.5
   2663,    1.4666667,          2.5
   2664,    1.2833333,          2.5
   2665,   1.10000002,          2.5
   2666,  0.916666687,          2.5
   2667,  0.733333349,          2.5
   2668,  0.550000012,          2.5
   2669,  0.366666675,          2.5
   2670,  0.183333337,          2.5
   2671,   19.8199997,           2.
   2672,   19.6399994,           2.
   2673,   19.4599991,           2.
   2674,   19.2800007,           2.
   2675,   19.1000004,           2.
   2676,   18.9200001,           2.
   2677,   18.7399998,           2.
   2678,   18.5599995,           2.
   2679,   18.3799992,           2.
   2680,   18.2000008,           2.
   2681,   18.0200005,           2.
   2682,   17.8400002,           2.
   2683,   17.6599998,           2.
   2684,   17.4799995,           2.
   2685,   17.2999992,           2.
   2686,   17.1200008,           2.
   2687,   16.9400005,           2.
   2688,   16.7600002,           2.
   2689,   16.5799999,           2.
   2690,   16.3999996,           2.
   2691,   16.2199993,           2.
   2692,   16.0400009,           2.
   2693,   15.8599997,           2.
   2694,   15.6800003,           2.
   2695,         15.5,           2.
   2696,   15.3199997,           2.
   2697,   15.1400003,           2.
   2698,        14.96,           2.
   2699,   14.7799997,           2.
   2700,   14.6000004,           2.
   2701,   14.4200001,           2.
   2702,   14.2399998,           2.
   2703,   14.0600004,           2.
   2704,   13.8800001,           2.
   2705,   13.6999998,           2.
   2706,   13.5200005,           2.
   2707,   13.3400002,           2.
   2708,   13.1599998,           2.
   2709,   12.9799995,           2.
   2710,   12.8000002,           2.
   2711,   12.6599998,           2.
   2712,   12.5200005,           2.
   2713,   12.3800001,           2.
   2714,   12.2399998,           2.
   2715,   12.1000004,           2.
   2716,        11.96,           2.
   2717,   11.8199997,           2.
   2718,   11.6800003,           2.
   2719,        11.54,           2.
   2720,   11.3999996,           2.
   2721,   11.2600002,           2.
   2722,   11.1199999,           2.
   2723,   10.9799995,           2.
   2724,   10.8400002,           2.
   2725,   10.6999998,           2.
   2726,   10.5600004,           2.
   2727,   10.4200001,           2.
   2728,   10.2799997,           2.
   2729,   10.1400003,           2.
   2730,          10.,           2.
   2731,   9.85999966,           2.
   2732,   9.72000027,           2.
   2733,   9.57999992,           2.
   2734,   9.43999958,           2.
   2735,   9.30000019,           2.
   2736,   9.15999985,           2.
   2737,   9.02000046,           2.
   2738,   8.88000011,           2.
   2739,   8.73999977,           2.
   2740,   8.60000038,           2.
   2741,   8.46000004,           2.
   2742,   8.31999969,           2.
   2743,   8.18000031,           2.
   2744,   8.03999996,           2.
   2745,    7.9000001,           2.
   2746,   7.76000023,           2.
   2747,   7.61999989,           2.
   2748,   7.48000002,           2.
   2749,   7.34000015,           2.
   2750,   7.19999981,           2.
   2751,   7.01999998,           2.
   2752,   6.84000015,           2.
   2753,   6.65999985,           2.
   2754,   6.48000002,           2.
   2755,   6.30000019,           2.
   2756,   6.11999989,           2.
   2757,   5.94000006,           2.
   2758,   5.76000023,           2.
   2759,   5.57999992,           2.
   2760,    5.4000001,           2.
   2761,   5.21999979,           2.
   2762,   5.03999996,           2.
   2763,   4.86000013,           2.
   2764,   4.67999983,           2.
   2765,          4.5,           2.
   2766,   4.32000017,           2.
   2767,   4.13999987,           2.
   2768,   3.96000004,           2.
   2769,   3.77999997,           2.
   2770,    3.5999999,           2.
   2771,   3.42000008,           2.
   2772,   3.24000001,           2.
   2773,   3.05999994,           2.
   2774,   2.88000011,           2.
   2775,   2.70000005,           2.
   2776,   2.51999998,           2.
   2777,   2.33999991,           2.
   2778,   2.16000009,           2.
   2779,   1.98000002,           2.
   2780,   1.79999995,           2.
   2781,         1.62,           2.
   2782,   1.44000006,           2.
   2783,   1.25999999,           2.
   2784,   1.08000004,           2.
   2785,  0.899999976,           2.
   2786,  0.720000029,           2.
   2787,  0.540000021,           2.
   2788,  0.360000014,           2.
   2789,  0.180000007,           2.
   2790,   19.8233337,          1.5
   2791,   19.6466675,          1.5
   2792,   19.4699993,          1.5
   2793,   19.2933331,          1.5
   2794,   19.1166668,          1.5
   2795,   18.9400005,          1.5
   2796,   18.7633343,          1.5
   2797,   18.5866661,          1.5
   2798,   18.4099998,          1.5
   2799,   18.2333336,          1.5
   2800,   18.0566673,          1.5
   2801,   17.8799992,          1.5
   2802,   17.7033329,          1.5
   2803,   17.5266666,          1.5
   2804,   17.3500004,          1.5
   2805,   17.1733341,          1.5
   2806,    16.996666,          1.5
   2807,   16.8199997,          1.5
   2808,   16.6433334,          1.5
   2809,   16.4666672,          1.5
   2810,   16.2900009,          1.5
   2811,   16.1133327,          1.5
   2812,   15.9366665,          1.5
   2813,   15.7600002,          1.5
   2814,    15.583333,          1.5
   2815,   15.4066668,          1.5
   2816,   15.2299995,          1.5
   2817,   15.0533333,          1.5
   2818,    14.876667,          1.5
   2819,   14.6999998,          1.5
   2820,   14.5233335,          1.5
   2821,   14.3466663,          1.5
   2822,   14.1700001,          1.5
   2823,   13.9933329,          1.5
   2824,   13.8166666,          1.5
   2825,   13.6400003,          1.5
   2826,   13.4633331,          1.5
   2827,   13.2866669,          1.5
   2828,   13.1099997,          1.5
   2829,   12.9333334,          1.5
   2830,   12.7866669,          1.5
   2831,   12.6400003,          1.5
   2832,   12.4933329,          1.5
   2833,   12.3466663,          1.5
   2834,   12.1999998,          1.5
   2835,   12.0533333,          1.5
   2836,   11.9066668,          1.5
   2837,   11.7600002,          1.5
   2838,   11.6133337,          1.5
   2839,   11.4666662,          1.5
   2840,   11.3199997,          1.5
   2841,   11.1733332,          1.5
   2842,   11.0266666,          1.5
   2843,   10.8800001,          1.5
   2844,   10.7333336,          1.5
   2845,   10.5866671,          1.5
   2846,   10.4399996,          1.5
   2847,   10.2933331,          1.5
   2848,   10.1466665,          1.5
   2849,          10.,          1.5
   2850,   9.85333347,          1.5
   2851,   9.70666695,          1.5
   2852,   9.56000042,          1.5
   2853,   9.41333294,          1.5
   2854,   9.26666641,          1.5
   2855,   9.11999989,          1.5
   2856,   8.97333336,          1.5
   2857,   8.82666683,          1.5
   2858,   8.68000031,          1.5
   2859,   8.53333378,          1.5
   2860,    8.3866663,          1.5
   2861,   8.23999977,          1.5
   2862,   8.09333324,          1.5
   2863,   7.94666672,          1.5
   2864,   7.80000019,          1.5
   2865,   7.65333319,          1.5
   2866,   7.50666666,          1.5
   2867,   7.36000013,          1.5
   2868,   7.21333313,          1.5
   2869,    7.0666666,          1.5
   2870,   6.88999987,          1.5
   2871,   6.71333313,          1.5
   2872,   6.53666687,          1.5
   2873,   6.36000013,          1.5
   2874,    6.1833334,          1.5
   2875,   6.00666666,          1.5
   2876,   5.82999992,          1.5
   2877,   5.65333319,          1.5
   2878,   5.47666645,          1.5
   2879,   5.30000019,          1.5
   2880,   5.12333345,          1.5
   2881,   4.94666672,          1.5
   2882,   4.76999998,          1.5
   2883,   4.59333324,          1.5
   2884,   4.41666651,          1.5
   2885,   4.23999977,          1.5
   2886,   4.06333351,          1.5
   2887,   3.88666677,          1.5
   2888,   3.71000004,          1.5
   2889,    3.5333333,          1.5
   2890,   3.35666656,          1.5
   2891,   3.18000007,          1.5
   2892,   3.00333333,          1.5
   2893,   2.82666659,          1.5
   2894,    2.6500001,          1.5
   2895,   2.47333336,          1.5
   2896,   2.29666662,          1.5
   2897,   2.11999989,          1.5
   2898,   1.94333339,          1.5
   2899,   1.76666665,          1.5
   2900,   1.59000003,          1.5
   2901,    1.4133333,          1.5
   2902,   1.23666668,          1.5
   2903,   1.05999994,          1.5
   2904,  0.883333325,          1.5
   2905,  0.706666648,          1.5
   2906,  0.529999971,          1.5
   2907,  0.353333324,          1.5
   2908,  0.176666662,          1.5
   2909,   19.8266659,           1.
   2910,   19.6533337,           1.
   2911,   19.4799995,           1.
   2912,   19.3066673,           1.
   2913,   19.1333332,           1.
   2914,   18.9599991,           1.
   2915,   18.7866669,           1.
   2916,   18.6133327,           1.
   2917,   18.4400005,           1.
   2918,   18.2666664,           1.
   2919,   18.0933342,           1.
   2920,   17.9200001,           1.
   2921,    17.746666,           1.
   2922,   17.5733337,           1.
   2923,   17.3999996,           1.
   2924,   17.2266674,           1.
   2925,   17.0533333,           1.
   2926,   16.8799992,           1.
   2927,   16.7066669,           1.
   2928,   16.5333328,           1.
   2929,   16.3600006,           1.
   2930,   16.1866665,           1.
   2931,   16.0133343,           1.
   2932,   15.8400002,           1.
   2933,    15.666667,           1.
   2934,   15.4933329,           1.
   2935,   15.3199997,           1.
   2936,   15.1466665,           1.
   2937,   14.9733334,           1.
   2938,   14.8000002,           1.
   2939,    14.626667,           1.
   2940,   14.4533329,           1.
   2941,   14.2799997,           1.
   2942,   14.1066666,           1.
   2943,   13.9333334,           1.
   2944,   13.7600002,           1.
   2945,   13.5866671,           1.
   2946,   13.4133329,           1.
   2947,   13.2399998,           1.
   2948,   13.0666666,           1.
   2949,   12.9133329,           1.
   2950,   12.7600002,           1.
   2951,   12.6066666,           1.
   2952,   12.4533329,           1.
   2953,   12.3000002,           1.
   2954,   12.1466665,           1.
   2955,   11.9933329,           1.
   2956,   11.8400002,           1.
   2957,   11.6866665,           1.
   2958,   11.5333338,           1.
   2959,   11.3800001,           1.
   2960,   11.2266665,           1.
   2961,   11.0733337,           1.
   2962,   10.9200001,           1.
   2963,   10.7666664,           1.
   2964,   10.6133337,           1.
   2965,        10.46,           1.
   2966,   10.3066664,           1.
   2967,   10.1533337,           1.
   2968,          10.,           1.
   2969,   9.84666634,           1.
   2970,   9.69333363,           1.
   2971,   9.53999996,           1.
   2972,    9.3866663,           1.
   2973,   9.23333359,           1.
   2974,   9.07999992,           1.
   2975,   8.92666626,           1.
   2976,   8.77333355,           1.
   2977,   8.61999989,           1.
   2978,   8.46666622,           1.
   2979,   8.31333351,           1.
   2980,   8.15999985,           1.
   2981,   8.00666714,           1.
   2982,   7.85333347,           1.
   2983,   7.69999981,           1.
   2984,   7.54666662,           1.
   2985,   7.39333344,           1.
   2986,   7.23999977,           1.
   2987,   7.08666658,           1.
   2988,    6.9333334,           1.
   2989,   6.76000023,           1.
   2990,   6.58666658,           1.
   2991,   6.41333342,           1.
   2992,   6.23999977,           1.
   2993,    6.0666666,           1.
   2994,   5.89333344,           1.
   2995,   5.71999979,           1.
   2996,   5.54666662,           1.
   2997,   5.37333345,           1.
   2998,   5.19999981,           1.
   2999,   5.02666664,           1.
   3000,   4.85333347,           1.
   3001,   4.67999983,           1.
   3002,   4.50666666,           1.
   3003,   4.33333349,           1.
   3004,   4.15999985,           1.
   3005,   3.98666668,           1.
   3006,   3.81333327,           1.
   3007,    3.6400001,           1.
   3008,    3.4666667,           1.
   3009,   3.29333329,           1.
   3010,   3.11999989,           1.
   3011,   2.94666672,           1.
   3012,   2.77333331,           1.
   3013,    2.5999999,           1.
   3014,   2.42666674,           1.
   3015,   2.25333333,           1.
   3016,   2.07999992,           1.
   3017,   1.90666664,           1.
   3018,   1.73333335,           1.
   3019,   1.55999994,           1.
   3020,   1.38666666,           1.
   3021,   1.21333337,           1.
   3022,   1.03999996,           1.
   3023,  0.866666675,           1.
   3024,  0.693333328,           1.
   3025,  0.519999981,           1.
   3026,  0.346666664,           1.
   3027,  0.173333332,           1.
   3028,   19.8299999,          0.5
   3029,   19.6599998,          0.5
   3030,   19.4899998,          0.5
   3031,   19.3199997,          0.5
   3032,   19.1499996,          0.5
   3033,   18.9799995,          0.5
   3034,   18.8099995,          0.5
   3035,   18.6399994,          0.5
   3036,   18.4699993,          0.5
   3037,   18.2999992,          0.5
   3038,   18.1299992,          0.5
   3039,   17.9599991,          0.5
   3040,   17.7900009,          0.5
   3041,   17.6200008,          0.5
   3042,   17.4500008,          0.5
   3043,   17.2800007,          0.5
   3044,   17.1100006,          0.5
   3045,   16.9400005,          0.5
   3046,   16.7700005,          0.5
   3047,   16.6000004,          0.5
   3048,   16.4300003,          0.5
   3049,   16.2600002,          0.5
   3050,   16.0900002,          0.5
   3051,   15.9200001,          0.5
   3052,        15.75,          0.5
   3053,   15.5799999,          0.5
   3054,   15.4099998,          0.5
   3055,   15.2399998,          0.5
   3056,   15.0699997,          0.5
   3057,   14.8999996,          0.5
   3058,   14.7299995,          0.5
   3059,   14.5600004,          0.5
   3060,   14.3900003,          0.5
   3061,   14.2200003,          0.5
   3062,   14.0500002,          0.5
   3063,   13.8800001,          0.5
   3064,        13.71,          0.5
   3065,        13.54,          0.5
   3066,   13.3699999,          0.5
   3067,   13.1999998,          0.5
   3068,        13.04,          0.5
   3069,   12.8800001,          0.5
   3070,   12.7200003,          0.5
   3071,   12.5600004,          0.5
   3072,   12.3999996,          0.5
   3073,   12.2399998,          0.5
   3074,   12.0799999,          0.5
   3075,   11.9200001,          0.5
   3076,   11.7600002,          0.5
   3077,   11.6000004,          0.5
   3078,   11.4399996,          0.5
   3079,   11.2799997,          0.5
   3080,   11.1199999,          0.5
   3081,        10.96,          0.5
   3082,   10.8000002,          0.5
   3083,   10.6400003,          0.5
   3084,   10.4799995,          0.5
   3085,   10.3199997,          0.5
   3086,   10.1599998,          0.5
   3087,          10.,          0.5
   3088,   9.84000015,          0.5
   3089,   9.68000031,          0.5
   3090,   9.52000046,          0.5
   3091,   9.35999966,          0.5
   3092,   9.19999981,          0.5
   3093,   9.03999996,          0.5
   3094,   8.88000011,          0.5
   3095,   8.72000027,          0.5
   3096,   8.56000042,          0.5
   3097,   8.39999962,          0.5
   3098,   8.23999977,          0.5
   3099,   8.07999992,          0.5
   3100,   7.92000008,          0.5
   3101,   7.76000023,          0.5
   3102,    7.5999999,          0.5
   3103,   7.44000006,          0.5
   3104,   7.28000021,          0.5
   3105,   7.11999989,          0.5
   3106,   6.96000004,          0.5
   3107,   6.80000019,          0.5
   3108,   6.63000011,          0.5
   3109,   6.46000004,          0.5
   3110,   6.28999996,          0.5
   3111,   6.11999989,          0.5
   3112,   5.94999981,          0.5
   3113,   5.78000021,          0.5
   3114,   5.61000013,          0.5
   3115,   5.44000006,          0.5
   3116,   5.26999998,          0.5
   3117,    5.0999999,          0.5
   3118,   4.92999983,          0.5
   3119,   4.76000023,          0.5
   3120,   4.59000015,          0.5
   3121,   4.42000008,          0.5
   3122,         4.25,          0.5
   3123,   4.07999992,          0.5
   3124,   3.91000009,          0.5
   3125,   3.74000001,          0.5
   3126,   3.56999993,          0.5
   3127,    3.4000001,          0.5
   3128,   3.23000002,          0.5
   3129,   3.05999994,          0.5
   3130,    2.8900001,          0.5
   3131,   2.72000003,          0.5
   3132,   2.54999995,          0.5
   3133,   2.38000011,          0.5
   3134,   2.21000004,          0.5
   3135,   2.03999996,          0.5
   3136,         1.87,          0.5
   3137,   1.70000005,          0.5
   3138,   1.52999997,          0.5
   3139,   1.36000001,          0.5
   3140,   1.19000006,          0.5
   3141,   1.01999998,          0.5
   3142,  0.850000024,          0.5
   3143,  0.680000007,          0.5
   3144,   0.50999999,          0.5
   3145,  0.340000004,          0.5
   3146,  0.170000002,          0.5
*Element, type=CPE4H
  1,   1,  13, 537,  98
  2,  13,  14, 538, 537
  3,  14,  15, 539, 538
  4,  15,  16, 540, 539
  5,  16,   2,  17, 540
  6,  98, 537, 541,  97
  7, 537, 538, 542, 541
  8, 538, 539, 543, 542
  9, 539, 540, 544, 543
 10, 540,  17,  18, 544
 11,  97, 541, 545,  96
 12, 541, 542, 546, 545
 13, 542, 543, 547, 546
 14, 543, 544, 548, 547
 15, 544,  18,  19, 548
 16,  96, 545, 549,  95
 17, 545, 546, 550, 549
 18, 546, 547, 551, 550
 19, 547, 548, 552, 551
 20, 548,  19,  20, 552
 21,  95, 549, 553,  94
 22, 549, 550, 554, 553
 23, 550, 551, 555, 554
 24, 551, 552, 556, 555
 25, 552,  20,  21, 556
 26,  94, 553, 557,  93
 27, 553, 554, 558, 557
 28, 554, 555, 559, 558
 29, 555, 556, 560, 559
 30, 556,  21,  22, 560
 31,  93, 557, 561,  92
 32, 557, 558, 562, 561
 33, 558, 559, 563, 562
 34, 559, 560, 564, 563
 35, 560,  22,  23, 564
 36,  92, 561, 565,  91
 37, 561, 562, 566, 565
 38, 562, 563, 567, 566
 39, 563, 564, 568, 567
 40, 564,  23,  24, 568
 41,  91, 565, 569,  90
 42, 565, 566, 570, 569
 43, 566, 567, 571, 570
 44, 567, 568, 572, 571
 45, 568,  24,  25, 572
 46,  90, 569, 573,  89
 47, 569, 570, 574, 573
 48, 570, 571, 575, 574
 49, 571, 572, 576, 575
 50, 572,  25,  26, 576
 51,  89, 573, 577,  88
 52, 573, 574, 578, 577
 53, 574, 575, 579, 578
 54, 575, 576, 580, 579
 55, 576,  26,  27, 580
 56,  88, 577, 581,  87
 57, 577, 578, 582, 581
 58, 578, 579, 583, 582
 59, 579, 580, 584, 583
 60, 580,  27,  28, 584
 61,  87, 581, 585,  86
 62, 581, 582, 586, 585
 63, 582, 583, 587, 586
 64, 583, 584, 588, 587
 65, 584,  28,  29, 588
 66,  86, 585, 589,  85
 67, 585, 586, 590, 589
 68, 586, 587, 591, 590
 69, 587, 588, 592, 591
 70, 588,  29,  30, 592
 71,  85, 589, 593,  84
 72, 589, 590, 594, 593
 73, 590, 591, 595, 594
 74, 591, 592, 596, 595
 75, 592,  30,  31, 596
 76,  84, 593, 597,  83
 77, 593, 594, 598, 597
 78, 594, 595, 599, 598
 79, 595, 596, 600, 599
 80, 596,  31,  32, 600
 81,  83, 597, 601,  82
 82, 597, 598, 602, 601
 83, 598, 599, 603, 602
 84, 599, 600, 604, 603
 85, 600,  32,  33, 604
 86,  82, 601, 605,  81
 87, 601, 602, 606, 605
 88, 602, 603, 607, 606
 89, 603, 604, 608, 607
 90, 604,  33,  34, 608
 91,  81, 605, 609,  80
 92, 605, 606, 610, 609
 93, 606, 607, 611, 610
 94, 607, 608, 612, 611
 95, 608,  34,  35, 612
 96,  80, 609, 613,  79
 97, 609, 610, 614, 613
 98, 610, 611, 615, 614
 99, 611, 612, 616, 615
100, 612,  35,  36, 616
101,  79, 613, 617,  78
102, 613, 614, 618, 617
103, 614, 615, 619, 618
104, 615, 616, 620, 619
105, 616,  36,  37, 620
106,  78, 617, 621,  77
107, 617, 618, 622, 621
108, 618, 619, 623, 622
109, 619, 620, 624, 623
110, 620,  37,  38, 624
111,  77, 621, 625,  76
112, 621, 622, 626, 625
113, 622, 623, 627, 626
114, 623, 624, 628, 627
115, 624,  38,  39, 628
116,  76, 625, 629,  75
117, 625, 626, 630, 629
118, 626, 627, 631, 630
119, 627, 628, 632, 631
120, 628,  39,  40, 632
121,  75, 629, 633,  74
122, 629, 630, 634, 633
123, 630, 631, 635, 634
124, 631, 632, 636, 635
125, 632,  40,  41, 636
126,  74, 633, 637,  73
127, 633, 634, 638, 637
128, 634, 635, 639, 638
129, 635, 636, 640, 639
130, 636,  41,  42, 640
131,  73, 637, 641,  72
132, 637, 638, 642, 641
133, 638, 639, 643, 642
134, 639, 640, 644, 643
135, 640,  42,  43, 644
136,  72, 641, 645,  71
137, 641, 642, 646, 645
138, 642, 643, 647, 646
139, 643, 644, 648, 647
140, 644,  43,  44, 648
141,  71, 645, 649,  70
142, 645, 646, 650, 649
143, 646, 647, 651, 650
144, 647, 648, 652, 651
145, 648,  44,  45, 652
146,  70, 649, 653,  69
147, 649, 650, 654, 653
148, 650, 651, 655, 654
149, 651, 652, 656, 655
150, 652,  45,  46, 656
151,  69, 653, 657,  68
152, 653, 654, 658, 657
153, 654, 655, 659, 658
154, 655, 656, 660, 659
155, 656,  46,  47, 660
156,  68, 657, 661,  67
157, 657, 658, 662, 661
158, 658, 659, 663, 662
159, 659, 660, 664, 663
160, 660,  47,  48, 664
161,  67, 661, 665,  66
162, 661, 662, 666, 665
163, 662, 663, 667, 666
164, 663, 664, 668, 667
165, 664,  48,  49, 668
166,  66, 665, 669,  65
167, 665, 666, 670, 669
168, 666, 667, 671, 670
169, 667, 668, 672, 671
170, 668,  49,  50, 672
171,  65, 669, 673,  64
172, 669, 670, 674, 673
173, 670, 671, 675, 674
174, 671, 672, 676, 675
175, 672,  50,  51, 676
176,  64, 673, 677,  63
177, 673, 674, 678, 677
178, 674, 675, 679, 678
179, 675, 676, 680, 679
180, 676,  51,  52, 680
181,  63, 677, 681,  62
182, 677, 678, 682, 681
183, 678, 679, 683, 682
184, 679, 680, 684, 683
185, 680,  52,  53, 684
186,  62, 681, 685,  61
187, 681, 682, 686, 685
188, 682, 683, 687, 686
189, 683, 684, 688, 687
190, 684,  53,  54, 688
191,  61, 685, 689,  60
192, 685, 686, 690, 689
193, 686, 687, 691, 690
194, 687, 688, 692, 691
195, 688,  54,  55, 692
196,  60, 689,  59,   4
197, 689, 690,  58,  59
198, 690, 691,  57,  58
199, 691, 692,  56,  57
200, 692,  55,   3,  56
201,   5,  99, 693, 184
202,  99, 100, 694, 693
203, 100, 101, 695, 694
204, 101, 102, 696, 695
205, 102,   6, 103, 696
206, 184, 693, 697, 183
207, 693, 694, 698, 697
208, 694, 695, 699, 698
209, 695, 696, 700, 699
210, 696, 103, 104, 700
211, 183, 697, 701, 182
212, 697, 698, 702, 701
213, 698, 699, 703, 702
214, 699, 700, 704, 703
215, 700, 104, 105, 704
216, 182, 701, 705, 181
217, 701, 702, 706, 705
218, 702, 703, 707, 706
219, 703, 704, 708, 707
220, 704, 105, 106, 708
221, 181, 705, 709, 180
222, 705, 706, 710, 709
223, 706, 707, 711, 710
224, 707, 708, 712, 711
225, 708, 106, 107, 712
226, 180, 709, 713, 179
227, 709, 710, 714, 713
228, 710, 711, 715, 714
229, 711, 712, 716, 715
230, 712, 107, 108, 716
231, 179, 713, 717, 178
232, 713, 714, 718, 717
233, 714, 715, 719, 718
234, 715, 716, 720, 719
235, 716, 108, 109, 720
236, 178, 717, 721, 177
237, 717, 718, 722, 721
238, 718, 719, 723, 722
239, 719, 720, 724, 723
240, 720, 109, 110, 724
241, 177, 721, 725, 176
242, 721, 722, 726, 725
243, 722, 723, 727, 726
244, 723, 724, 728, 727
245, 724, 110, 111, 728
246, 176, 725, 729, 175
247, 725, 726, 730, 729
248, 726, 727, 731, 730
249, 727, 728, 732, 731
250, 728, 111, 112, 732
251, 175, 729, 733, 174
252, 729, 730, 734, 733
253, 730, 731, 735, 734
254, 731, 732, 736, 735
255, 732, 112, 113, 736
256, 174, 733, 737, 173
257, 733, 734, 738, 737
258, 734, 735, 739, 738
259, 735, 736, 740, 739
260, 736, 113, 114, 740
261, 173, 737, 741, 172
262, 737, 738, 742, 741
263, 738, 739, 743, 742
264, 739, 740, 744, 743
265, 740, 114, 115, 744
266, 172, 741, 745, 171
267, 741, 742, 746, 745
268, 742, 743, 747, 746
269, 743, 744, 748, 747
270, 744, 115, 116, 748
271, 171, 745, 749, 170
272, 745, 746, 750, 749
273, 746, 747, 751, 750
274, 747, 748, 752, 751
275, 748, 116, 117, 752
276, 170, 749, 753, 169
277, 749, 750, 754, 753
278, 750, 751, 755, 754
279, 751, 752, 756, 755
280, 752, 117, 118, 756
281, 169, 753, 757, 168
282, 753, 754, 758, 757
283, 754, 755, 759, 758
284, 755, 756, 760, 759
285, 756, 118, 119, 760
286, 168, 757, 761, 167
287, 757, 758, 762, 761
288, 758, 759, 763, 762
289, 759, 760, 764, 763
290, 760, 119, 120, 764
291, 167, 761, 765, 166
292, 761, 762, 766, 765
293, 762, 763, 767, 766
294, 763, 764, 768, 767
295, 764, 120, 121, 768
296, 166, 765, 769, 165
297, 765, 766, 770, 769
298, 766, 767, 771, 770
299, 767, 768, 772, 771
300, 768, 121, 122, 772
301, 165, 769, 773, 164
302, 769, 770, 774, 773
303, 770, 771, 775, 774
304, 771, 772, 776, 775
305, 772, 122, 123, 776
306, 164, 773, 777, 163
307, 773, 774, 778, 777
308, 774, 775, 779, 778
309, 775, 776, 780, 779
310, 776, 123, 124, 780
311, 163, 777, 781, 162
312, 777, 778, 782, 781
313, 778, 779, 783, 782
314, 779, 780, 784, 783
315, 780, 124, 125, 784
316, 162, 781, 785, 161
317, 781, 782, 786, 785
318, 782, 783, 787, 786
319, 783, 784, 788, 787
320, 784, 125, 126, 788
321, 161, 785, 789, 160
322, 785, 786, 790, 789
323, 786, 787, 791, 790
324, 787, 788, 792, 791
325, 788, 126, 127, 792
326, 160, 789, 793, 159
327, 789, 790, 794, 793
328, 790, 791, 795, 794
329, 791, 792, 796, 795
330, 792, 127, 128, 796
331, 159, 793, 797, 158
332, 793, 794, 798, 797
333, 794, 795, 799, 798
334, 795, 796, 800, 799
335, 796, 128, 129, 800
336, 158, 797, 801, 157
337, 797, 798, 802, 801
338, 798, 799, 803, 802
339, 799, 800, 804, 803
340, 800, 129, 130, 804
341, 157, 801, 805, 156
342, 801, 802, 806, 805
343, 802, 803, 807, 806
344, 803, 804, 808, 807
345, 804, 130, 131, 808
346, 156, 805, 809, 155
347, 805, 806, 810, 809
348, 806, 807, 811, 810
349, 807, 808, 812, 811
350, 808, 131, 132, 812
351, 155, 809, 813, 154
352, 809, 810, 814, 813
353, 810, 811, 815, 814
354, 811, 812, 816, 815
355, 812, 132, 133, 816
356, 154, 813, 817, 153
357, 813, 814, 818, 817
358, 814, 815, 819, 818
359, 815, 816, 820, 819
360, 816, 133, 134, 820
361, 153, 817, 821, 152
362, 817, 818, 822, 821
363, 818, 819, 823, 822
364, 819, 820, 824, 823
365, 820, 134, 135, 824
366, 152, 821, 825, 151
367, 821, 822, 826, 825
368, 822, 823, 827, 826
369, 823, 824, 828, 827
370, 824, 135, 136, 828
371, 151, 825, 829, 150
372, 825, 826, 830, 829
373, 826, 827, 831, 830
374, 827, 828, 832, 831
375, 828, 136, 137, 832
376, 150, 829, 833, 149
377, 829, 830, 834, 833
378, 830, 831, 835, 834
379, 831, 832, 836, 835
380, 832, 137, 138, 836
381, 149, 833, 837, 148
382, 833, 834, 838, 837
383, 834, 835, 839, 838
384, 835, 836, 840, 839
385, 836, 138, 139, 840
386, 148, 837, 841, 147
387, 837, 838, 842, 841
388, 838, 839, 843, 842
389, 839, 840, 844, 843
390, 840, 139, 140, 844
391, 147, 841, 845, 146
392, 841, 842, 846, 845
393, 842, 843, 847, 846
394, 843, 844, 848, 847
395, 844, 140, 141, 848
396, 146, 845, 145,   8
397, 845, 846, 144, 145
398, 846, 847, 143, 144
399, 847, 848, 142, 143
400, 848, 141,   7, 142
 401,    4,  185,  849,   60
 402,  185,  186,  850,  849
 403,  186,  187,  851,  850
 404,  187,  188,  852,  851
 405,  188,  189,  853,  852
 406,  189,  190,  854,  853
 407,  190,  191,  855,  854
 408,  191,  192,  856,  855
 409,  192,  193,  857,  856
 410,  193,    9,  194,  857
 411,   60,  849,  858,   61
 412,  849,  850,  859,  858
 413,  850,  851,  860,  859
 414,  851,  852,  861,  860
 415,  852,  853,  862,  861
 416,  853,  854,  863,  862
 417,  854,  855,  864,  863
 418,  855,  856,  865,  864
 419,  856,  857,  866,  865
 420,  857,  194,  195,  866
 421,   61,  858,  867,   62
 422,  858,  859,  868,  867
 423,  859,  860,  869,  868
 424,  860,  861,  870,  869
 425,  861,  862,  871,  870
 426,  862,  863,  872,  871
 427,  863,  864,  873,  872
 428,  864,  865,  874,  873
 429,  865,  866,  875,  874
 430,  866,  195,  196,  875
 431,   62,  867,  876,   63
 432,  867,  868,  877,  876
 433,  868,  869,  878,  877
 434,  869,  870,  879,  878
 435,  870,  871,  880,  879
 436,  871,  872,  881,  880
 437,  872,  873,  882,  881
 438,  873,  874,  883,  882
 439,  874,  875,  884,  883
 440,  875,  196,  197,  884
 441,   63,  876,  885,   64
 442,  876,  877,  886,  885
 443,  877,  878,  887,  886
 444,  878,  879,  888,  887
 445,  879,  880,  889,  888
 446,  880,  881,  890,  889
 447,  881,  882,  891,  890
 448,  882,  883,  892,  891
 449,  883,  884,  893,  892
 450,  884,  197,  198,  893
 451,   64,  885,  894,   65
 452,  885,  886,  895,  894
 453,  886,  887,  896,  895
 454,  887,  888,  897,  896
 455,  888,  889,  898,  897
 456,  889,  890,  899,  898
 457,  890,  891,  900,  899
 458,  891,  892,  901,  900
 459,  892,  893,  902,  901
 460,  893,  198,  199,  902
 461,   65,  894,  903,   66
 462,  894,  895,  904,  903
 463,  895,  896,  905,  904
 464,  896,  897,  906,  905
 465,  897,  898,  907,  906
 466,  898,  899,  908,  907
 467,  899,  900,  909,  908
 468,  900,  901,  910,  909
 469,  901,  902,  911,  910
 470,  902,  199,  200,  911
 471,   66,  903,  912,   67
 472,  903,  904,  913,  912
 473,  904,  905,  914,  913
 474,  905,  906,  915,  914
 475,  906,  907,  916,  915
 476,  907,  908,  917,  916
 477,  908,  909,  918,  917
 478,  909,  910,  919,  918
 479,  910,  911,  920,  919
 480,  911,  200,  201,  920
 481,   67,  912,  921,   68
 482,  912,  913,  922,  921
 483,  913,  914,  923,  922
 484,  914,  915,  924,  923
 485,  915,  916,  925,  924
 486,  916,  917,  926,  925
 487,  917,  918,  927,  926
 488,  918,  919,  928,  927
 489,  919,  920,  929,  928
 490,  920,  201,  202,  929
 491,   68,  921,  930,   69
 492,  921,  922,  931,  930
 493,  922,  923,  932,  931
 494,  923,  924,  933,  932
 495,  924,  925,  934,  933
 496,  925,  926,  935,  934
 497,  926,  927,  936,  935
 498,  927,  928,  937,  936
 499,  928,  929,  938,  937
 500,  929,  202,  203,  938
 501,   69,  930,  939,   70
 502,  930,  931,  940,  939
 503,  931,  932,  941,  940
 504,  932,  933,  942,  941
 505,  933,  934,  943,  942
 506,  934,  935,  944,  943
 507,  935,  936,  945,  944
 508,  936,  937,  946,  945
 509,  937,  938,  947,  946
 510,  938,  203,  204,  947
 511,   70,  939,  948,   71
 512,  939,  940,  949,  948
 513,  940,  941,  950,  949
 514,  941,  942,  951,  950
 515,  942,  943,  952,  951
 516,  943,  944,  953,  952
 517,  944,  945,  954,  953
 518,  945,  946,  955,  954
 519,  946,  947,  956,  955
 520,  947,  204,  205,  956
 521,   71,  948,  957,   72
 522,  948,  949,  958,  957
 523,  949,  950,  959,  958
 524,  950,  951,  960,  959
 525,  951,  952,  961,  960
 526,  952,  953,  962,  961
 527,  953,  954,  963,  962
 528,  954,  955,  964,  963
 529,  955,  956,  965,  964
 530,  956,  205,  206,  965
 531,   72,  957,  966,   73
 532,  957,  958,  967,  966
 533,  958,  959,  968,  967
 534,  959,  960,  969,  968
 535,  960,  961,  970,  969
 536,  961,  962,  971,  970
 537,  962,  963,  972,  971
 538,  963,  964,  973,  972
 539,  964,  965,  974,  973
 540,  965,  206,  207,  974
 541,   73,  966,  975,   74
 542,  966,  967,  976,  975
 543,  967,  968,  977,  976
 544,  968,  969,  978,  977
 545,  969,  970,  979,  978
 546,  970,  971,  980,  979
 547,  971,  972,  981,  980
 548,  972,  973,  982,  981
 549,  973,  974,  983,  982
 550,  974,  207,  208,  983
 551,   74,  975,  984,   75
 552,  975,  976,  985,  984
 553,  976,  977,  986,  985
 554,  977,  978,  987,  986
 555,  978,  979,  988,  987
 556,  979,  980,  989,  988
 557,  980,  981,  990,  989
 558,  981,  982,  991,  990
 559,  982,  983,  992,  991
 560,  983,  208,  209,  992
 561,   75,  984,  993,   76
 562,  984,  985,  994,  993
 563,  985,  986,  995,  994
 564,  986,  987,  996,  995
 565,  987,  988,  997,  996
 566,  988,  989,  998,  997
 567,  989,  990,  999,  998
 568,  990,  991, 1000,  999
 569,  991,  992, 1001, 1000
 570,  992,  209,  210, 1001
 571,   76,  993, 1002,   77
 572,  993,  994, 1003, 1002
 573,  994,  995, 1004, 1003
 574,  995,  996, 1005, 1004
 575,  996,  997, 1006, 1005
 576,  997,  998, 1007, 1006
 577,  998,  999, 1008, 1007
 578,  999, 1000, 1009, 1008
 579, 1000, 1001, 1010, 1009
 580, 1001,  210,  211, 1010
 581,   77, 1002, 1011,   78
 582, 1002, 1003, 1012, 1011
 583, 1003, 1004, 1013, 1012
 584, 1004, 1005, 1014, 1013
 585, 1005, 1006, 1015, 1014
 586, 1006, 1007, 1016, 1015
 587, 1007, 1008, 1017, 1016
 588, 1008, 1009, 1018, 1017
 589, 1009, 1010, 1019, 1018
 590, 1010,  211,  212, 1019
 591,   78, 1011, 1020,   79
 592, 1011, 1012, 1021, 1020
 593, 1012, 1013, 1022, 1021
 594, 1013, 1014, 1023, 1022
 595, 1014, 1015, 1024, 1023
 596, 1015, 1016, 1025, 1024
 597, 1016, 1017, 1026, 1025
 598, 1017, 1018, 1027, 1026
 599, 1018, 1019, 1028, 1027
 600, 1019,  212,  213, 1028
 601,   79, 1020, 1029,   80
 602, 1020, 1021, 1030, 1029
 603, 1021, 1022, 1031, 1030
 604, 1022, 1023, 1032, 1031
 605, 1023, 1024, 1033, 1032
 606, 1024, 1025, 1034, 1033
 607, 1025, 1026, 1035, 1034
 608, 1026, 1027, 1036, 1035
 609, 1027, 1028, 1037, 1036
 610, 1028,  213,  214, 1037
 611,   80, 1029, 1038,   81
 612, 1029, 1030, 1039, 1038
 613, 1030, 1031, 1040, 1039
 614, 1031, 1032, 1041, 1040
 615, 1032, 1033, 1042, 1041
 616, 1033, 1034, 1043, 1042
 617, 1034, 1035, 1044, 1043
 618, 1035, 1036, 1045, 1044
 619, 1036, 1037, 1046, 1045
 620, 1037,  214,  215, 1046
 621,   81, 1038, 1047,   82
 622, 1038, 1039, 1048, 1047
 623, 1039, 1040, 1049, 1048
 624, 1040, 1041, 1050, 1049
 625, 1041, 1042, 1051, 1050
 626, 1042, 1043, 1052, 1051
 627, 1043, 1044, 1053, 1052
 628, 1044, 1045, 1054, 1053
 629, 1045, 1046, 1055, 1054
 630, 1046,  215,  216, 1055
 631,   82, 1047, 1056,   83
 632, 1047, 1048, 1057, 1056
 633, 1048, 1049, 1058, 1057
 634, 1049, 1050, 1059, 1058
 635, 1050, 1051, 1060, 1059
 636, 1051, 1052, 1061, 1060
 637, 1052, 1053, 1062, 1061
 638, 1053, 1054, 1063, 1062
 639, 1054, 1055, 1064, 1063
 640, 1055,  216,  217, 1064
 641,   83, 1056, 1065,   84
 642, 1056, 1057, 1066, 1065
 643, 1057, 1058, 1067, 1066
 644, 1058, 1059, 1068, 1067
 645, 1059, 1060, 1069, 1068
 646, 1060, 1061, 1070, 1069
 647, 1061, 1062, 1071, 1070
 648, 1062, 1063, 1072, 1071
 649, 1063, 1064, 1073, 1072
 650, 1064,  217,  218, 1073
 651,   84, 1065, 1074,   85
 652, 1065, 1066, 1075, 1074
 653, 1066, 1067, 1076, 1075
 654, 1067, 1068, 1077, 1076
 655, 1068, 1069, 1078, 1077
 656, 1069, 1070, 1079, 1078
 657, 1070, 1071, 1080, 1079
 658, 1071, 1072, 1081, 1080
 659, 1072, 1073, 1082, 1081
 660, 1073,  218,  219, 1082
 661,   85, 1074, 1083,   86
 662, 1074, 1075, 1084, 1083
 663, 1075, 1076, 1085, 1084
 664, 1076, 1077, 1086, 1085
 665, 1077, 1078, 1087, 1086
 666, 1078, 1079, 1088, 1087
 667, 1079, 1080, 1089, 1088
 668, 1080, 1081, 1090, 1089
 669, 1081, 1082, 1091, 1090
 670, 1082,  219,  220, 1091
 671,   86, 1083, 1092,   87
 672, 1083, 1084, 1093, 1092
 673, 1084, 1085, 1094, 1093
 674, 1085, 1086, 1095, 1094
 675, 1086, 1087, 1096, 1095
 676, 1087, 1088, 1097, 1096
 677, 1088, 1089, 1098, 1097
 678, 1089, 1090, 1099, 1098
 679, 1090, 1091, 1100, 1099
 680, 1091,  220,  221, 1100
 681,   87, 1092, 1101,   88
 682, 1092, 1093, 1102, 1101
 683, 1093, 1094, 1103, 1102
 684, 1094, 1095, 1104, 1103
 685, 1095, 1096, 1105, 1104
 686, 1096, 1097, 1106, 1105
 687, 1097, 1098, 1107, 1106
 688, 1098, 1099, 1108, 1107
 689, 1099, 1100, 1109, 1108
 690, 1100,  221,  222, 1109
 691,   88, 1101, 1110,   89
 692, 1101, 1102, 1111, 1110
 693, 1102, 1103, 1112, 1111
 694, 1103, 1104, 1113, 1112
 695, 1104, 1105, 1114, 1113
 696, 1105, 1106, 1115, 1114
 697, 1106, 1107, 1116, 1115
 698, 1107, 1108, 1117, 1116
 699, 1108, 1109, 1118, 1117
 700, 1109,  222,  223, 1118
 701,   89, 1110, 1119,   90
 702, 1110, 1111, 1120, 1119
 703, 1111, 1112, 1121, 1120
 704, 1112, 1113, 1122, 1121
 705, 1113, 1114, 1123, 1122
 706, 1114, 1115, 1124, 1123
 707, 1115, 1116, 1125, 1124
 708, 1116, 1117, 1126, 1125
 709, 1117, 1118, 1127, 1126
 710, 1118,  223,  224, 1127
 711,   90, 1119, 1128,   91
 712, 1119, 1120, 1129, 1128
 713, 1120, 1121, 1130, 1129
 714, 1121, 1122, 1131, 1130
 715, 1122, 1123, 1132, 1131
 716, 1123, 1124, 1133, 1132
 717, 1124, 1125, 1134, 1133
 718, 1125, 1126, 1135, 1134
 719, 1126, 1127, 1136, 1135
 720, 1127,  224,  225, 1136
 721,   91, 1128, 1137,   92
 722, 1128, 1129, 1138, 1137
 723, 1129, 1130, 1139, 1138
 724, 1130, 1131, 1140, 1139
 725, 1131, 1132, 1141, 1140
 726, 1132, 1133, 1142, 1141
 727, 1133, 1134, 1143, 1142
 728, 1134, 1135, 1144, 1143
 729, 1135, 1136, 1145, 1144
 730, 1136,  225,  226, 1145
 731,   92, 1137, 1146,   93
 732, 1137, 1138, 1147, 1146
 733, 1138, 1139, 1148, 1147
 734, 1139, 1140, 1149, 1148
 735, 1140, 1141, 1150, 1149
 736, 1141, 1142, 1151, 1150
 737, 1142, 1143, 1152, 1151
 738, 1143, 1144, 1153, 1152
 739, 1144, 1145, 1154, 1153
 740, 1145,  226,  227, 1154
 741,   93, 1146, 1155,   94
 742, 1146, 1147, 1156, 1155
 743, 1147, 1148, 1157, 1156
 744, 1148, 1149, 1158, 1157
 745, 1149, 1150, 1159, 1158
 746, 1150, 1151, 1160, 1159
 747, 1151, 1152, 1161, 1160
 748, 1152, 1153, 1162, 1161
 749, 1153, 1154, 1163, 1162
 750, 1154,  227,  228, 1163
 751,   94, 1155, 1164,   95
 752, 1155, 1156, 1165, 1164
 753, 1156, 1157, 1166, 1165
 754, 1157, 1158, 1167, 1166
 755, 1158, 1159, 1168, 1167
 756, 1159, 1160, 1169, 1168
 757, 1160, 1161, 1170, 1169
 758, 1161, 1162, 1171, 1170
 759, 1162, 1163, 1172, 1171
 760, 1163,  228,  229, 1172
 761,   95, 1164, 1173,   96
 762, 1164, 1165, 1174, 1173
 763, 1165, 1166, 1175, 1174
 764, 1166, 1167, 1176, 1175
 765, 1167, 1168, 1177, 1176
 766, 1168, 1169, 1178, 1177
 767, 1169, 1170, 1179, 1178
 768, 1170, 1171, 1180, 1179
 769, 1171, 1172, 1181, 1180
 770, 1172,  229,  230, 1181
 771,   96, 1173, 1182,   97
 772, 1173, 1174, 1183, 1182
 773, 1174, 1175, 1184, 1183
 774, 1175, 1176, 1185, 1184
 775, 1176, 1177, 1186, 1185
 776, 1177, 1178, 1187, 1186
 777, 1178, 1179, 1188, 1187
 778, 1179, 1180, 1189, 1188
 779, 1180, 1181, 1190, 1189
 780, 1181,  230,  231, 1190
 781,   97, 1182, 1191,   98
 782, 1182, 1183, 1192, 1191
 783, 1183, 1184, 1193, 1192
 784, 1184, 1185, 1194, 1193
 785, 1185, 1186, 1195, 1194
 786, 1186, 1187, 1196, 1195
 787, 1187, 1188, 1197, 1196
 788, 1188, 1189, 1198, 1197
 789, 1189, 1190, 1199, 1198
 790, 1190,  231,  232, 1199
 791,   98, 1191, 1200,    1
 792, 1191, 1192, 1201, 1200
 793, 1192, 1193, 1202, 1201
 794, 1193, 1194, 1203, 1202
 795, 1194, 1195, 1204, 1203
 796, 1195, 1196, 1205, 1204
 797, 1196, 1197, 1206, 1205
 798, 1197, 1198, 1207, 1206
 799, 1198, 1199, 1208, 1207
 800, 1199,  232,  233, 1208
 801,    1, 1200, 1209,  360
 802, 1200, 1201, 1210, 1209
 803, 1201, 1202, 1211, 1210
 804, 1202, 1203, 1212, 1211
 805, 1203, 1204, 1213, 1212
 806, 1204, 1205, 1214, 1213
 807, 1205, 1206, 1215, 1214
 808, 1206, 1207, 1216, 1215
 809, 1207, 1208, 1217, 1216
 810, 1208,  233,  234, 1217
 811,  360, 1209, 1218,  359
 812, 1209, 1210, 1219, 1218
 813, 1210, 1211, 1220, 1219
 814, 1211, 1212, 1221, 1220
 815, 1212, 1213, 1222, 1221
 816, 1213, 1214, 1223, 1222
 817, 1214, 1215, 1224, 1223
 818, 1215, 1216, 1225, 1224
 819, 1216, 1217, 1226, 1225
 820, 1217,  234,  235, 1226
 821,  359, 1218, 1227,  358
 822, 1218, 1219, 1228, 1227
 823, 1219, 1220, 1229, 1228
 824, 1220, 1221, 1230, 1229
 825, 1221, 1222, 1231, 1230
 826, 1222, 1223, 1232, 1231
 827, 1223, 1224, 1233, 1232
 828, 1224, 1225, 1234, 1233
 829, 1225, 1226, 1235, 1234
 830, 1226,  235,  236, 1235
 831,  358, 1227, 1236,  357
 832, 1227, 1228, 1237, 1236
 833, 1228, 1229, 1238, 1237
 834, 1229, 1230, 1239, 1238
 835, 1230, 1231, 1240, 1239
 836, 1231, 1232, 1241, 1240
 837, 1232, 1233, 1242, 1241
 838, 1233, 1234, 1243, 1242
 839, 1234, 1235, 1244, 1243
 840, 1235,  236,  237, 1244
 841,  357, 1236, 1245,  356
 842, 1236, 1237, 1246, 1245
 843, 1237, 1238, 1247, 1246
 844, 1238, 1239, 1248, 1247
 845, 1239, 1240, 1249, 1248
 846, 1240, 1241, 1250, 1249
 847, 1241, 1242, 1251, 1250
 848, 1242, 1243, 1252, 1251
 849, 1243, 1244, 1253, 1252
 850, 1244,  237,  238, 1253
 851,  356, 1245, 1254,  355
 852, 1245, 1246, 1255, 1254
 853, 1246, 1247, 1256, 1255
 854, 1247, 1248, 1257, 1256
 855, 1248, 1249, 1258, 1257
 856, 1249, 1250, 1259, 1258
 857, 1250, 1251, 1260, 1259
 858, 1251, 1252, 1261, 1260
 859, 1252, 1253, 1262, 1261
 860, 1253,  238,  239, 1262
 861,  355, 1254, 1263,  354
 862, 1254, 1255, 1264, 1263
 863, 1255, 1256, 1265, 1264
 864, 1256, 1257, 1266, 1265
 865, 1257, 1258, 1267, 1266
 866, 1258, 1259, 1268, 1267
 867, 1259, 1260, 1269, 1268
 868, 1260, 1261, 1270, 1269
 869, 1261, 1262, 1271, 1270
 870, 1262,  239,  240, 1271
 871,  354, 1263, 1272,  353
 872, 1263, 1264, 1273, 1272
 873, 1264, 1265, 1274, 1273
 874, 1265, 1266, 1275, 1274
 875, 1266, 1267, 1276, 1275
 876, 1267, 1268, 1277, 1276
 877, 1268, 1269, 1278, 1277
 878, 1269, 1270, 1279, 1278
 879, 1270, 1271, 1280, 1279
 880, 1271,  240,  241, 1280
 881,  353, 1272, 1281,  352
 882, 1272, 1273, 1282, 1281
 883, 1273, 1274, 1283, 1282
 884, 1274, 1275, 1284, 1283
 885, 1275, 1276, 1285, 1284
 886, 1276, 1277, 1286, 1285
 887, 1277, 1278, 1287, 1286
 888, 1278, 1279, 1288, 1287
 889, 1279, 1280, 1289, 1288
 890, 1280,  241,  242, 1289
 891,  352, 1281, 1290,  351
 892, 1281, 1282, 1291, 1290
 893, 1282, 1283, 1292, 1291
 894, 1283, 1284, 1293, 1292
 895, 1284, 1285, 1294, 1293
 896, 1285, 1286, 1295, 1294
 897, 1286, 1287, 1296, 1295
 898, 1287, 1288, 1297, 1296
 899, 1288, 1289, 1298, 1297
 900, 1289,  242,  243, 1298
 901,  351, 1290, 1299,  350
 902, 1290, 1291, 1300, 1299
 903, 1291, 1292, 1301, 1300
 904, 1292, 1293, 1302, 1301
 905, 1293, 1294, 1303, 1302
 906, 1294, 1295, 1304, 1303
 907, 1295, 1296, 1305, 1304
 908, 1296, 1297, 1306, 1305
 909, 1297, 1298, 1307, 1306
 910, 1298,  243,  244, 1307
 911,  350, 1299, 1308,  349
 912, 1299, 1300, 1309, 1308
 913, 1300, 1301, 1310, 1309
 914, 1301, 1302, 1311, 1310
 915, 1302, 1303, 1312, 1311
 916, 1303, 1304, 1313, 1312
 917, 1304, 1305, 1314, 1313
 918, 1305, 1306, 1315, 1314
 919, 1306, 1307, 1316, 1315
 920, 1307,  244,  245, 1316
 921,  349, 1308, 1317,  348
 922, 1308, 1309, 1318, 1317
 923, 1309, 1310, 1319, 1318
 924, 1310, 1311, 1320, 1319
 925, 1311, 1312, 1321, 1320
 926, 1312, 1313, 1322, 1321
 927, 1313, 1314, 1323, 1322
 928, 1314, 1315, 1324, 1323
 929, 1315, 1316, 1325, 1324
 930, 1316,  245,  246, 1325
 931,  348, 1317, 1326,  347
 932, 1317, 1318, 1327, 1326
 933, 1318, 1319, 1328, 1327
 934, 1319, 1320, 1329, 1328
 935, 1320, 1321, 1330, 1329
 936, 1321, 1322, 1331, 1330
 937, 1322, 1323, 1332, 1331
 938, 1323, 1324, 1333, 1332
 939, 1324, 1325, 1334, 1333
 940, 1325,  246,  247, 1334
 941,  347, 1326, 1335,  346
 942, 1326, 1327, 1336, 1335
 943, 1327, 1328, 1337, 1336
 944, 1328, 1329, 1338, 1337
 945, 1329, 1330, 1339, 1338
 946, 1330, 1331, 1340, 1339
 947, 1331, 1332, 1341, 1340
 948, 1332, 1333, 1342, 1341
 949, 1333, 1334, 1343, 1342
 950, 1334,  247,  248, 1343
 951,  346, 1335, 1344,  345
 952, 1335, 1336, 1345, 1344
 953, 1336, 1337, 1346, 1345
 954, 1337, 1338, 1347, 1346
 955, 1338, 1339, 1348, 1347
 956, 1339, 1340, 1349, 1348
 957, 1340, 1341, 1350, 1349
 958, 1341, 1342, 1351, 1350
 959, 1342, 1343, 1352, 1351
 960, 1343,  248,  249, 1352
 961,  345, 1344, 1353,  344
 962, 1344, 1345, 1354, 1353
 963, 1345, 1346, 1355, 1354
 964, 1346, 1347, 1356, 1355
 965, 1347, 1348, 1357, 1356
 966, 1348, 1349, 1358, 1357
 967, 1349, 1350, 1359, 1358
 968, 1350, 1351, 1360, 1359
 969, 1351, 1352, 1361, 1360
 970, 1352,  249,  250, 1361
 971,  344, 1353, 1362,  343
 972, 1353, 1354, 1363, 1362
 973, 1354, 1355, 1364, 1363
 974, 1355, 1356, 1365, 1364
 975, 1356, 1357, 1366, 1365
 976, 1357, 1358, 1367, 1366
 977, 1358, 1359, 1368, 1367
 978, 1359, 1360, 1369, 1368
 979, 1360, 1361, 1370, 1369
 980, 1361,  250,  251, 1370
 981,  343, 1362, 1371,  342
 982, 1362, 1363, 1372, 1371
 983, 1363, 1364, 1373, 1372
 984, 1364, 1365, 1374, 1373
 985, 1365, 1366, 1375, 1374
 986, 1366, 1367, 1376, 1375
 987, 1367, 1368, 1377, 1376
 988, 1368, 1369, 1378, 1377
 989, 1369, 1370, 1379, 1378
 990, 1370,  251,  252, 1379
 991,  342, 1371, 1380,  341
 992, 1371, 1372, 1381, 1380
 993, 1372, 1373, 1382, 1381
 994, 1373, 1374, 1383, 1382
 995, 1374, 1375, 1384, 1383
 996, 1375, 1376, 1385, 1384
 997, 1376, 1377, 1386, 1385
 998, 1377, 1378, 1387, 1386
 999, 1378, 1379, 1388, 1387
1000, 1379,  252,  253, 1388
1001,  341, 1380, 1389,  340
1002, 1380, 1381, 1390, 1389
1003, 1381, 1382, 1391, 1390
1004, 1382, 1383, 1392, 1391
1005, 1383, 1384, 1393, 1392
1006, 1384, 1385, 1394, 1393
1007, 1385, 1386, 1395, 1394
1008, 1386, 1387, 1396, 1395
1009, 1387, 1388, 1397, 1396
1010, 1388,  253,  254, 1397
1011,  340, 1389, 1398,  339
1012, 1389, 1390, 1399, 1398
1013, 1390, 1391, 1400, 1399
1014, 1391, 1392, 1401, 1400
1015, 1392, 1393, 1402, 1401
1016, 1393, 1394, 1403, 1402
1017, 1394, 1395, 1404, 1403
1018, 1395, 1396, 1405, 1404
1019, 1396, 1397, 1406, 1405
1020, 1397,  254,  255, 1406
1021,  339, 1398, 1407,  338
1022, 1398, 1399, 1408, 1407
1023, 1399, 1400, 1409, 1408
1024, 1400, 1401, 1410, 1409
1025, 1401, 1402, 1411, 1410
1026, 1402, 1403, 1412, 1411
1027, 1403, 1404, 1413, 1412
1028, 1404, 1405, 1414, 1413
1029, 1405, 1406, 1415, 1414
1030, 1406,  255,  256, 1415
1031,  338, 1407, 1416,  337
1032, 1407, 1408, 1417, 1416
1033, 1408, 1409, 1418, 1417
1034, 1409, 1410, 1419, 1418
1035, 1410, 1411, 1420, 1419
1036, 1411, 1412, 1421, 1420
1037, 1412, 1413, 1422, 1421
1038, 1413, 1414, 1423, 1422
1039, 1414, 1415, 1424, 1423
1040, 1415,  256,  257, 1424
1041,  337, 1416, 1425,  336
1042, 1416, 1417, 1426, 1425
1043, 1417, 1418, 1427, 1426
1044, 1418, 1419, 1428, 1427
1045, 1419, 1420, 1429, 1428
1046, 1420, 1421, 1430, 1429
1047, 1421, 1422, 1431, 1430
1048, 1422, 1423, 1432, 1431
1049, 1423, 1424, 1433, 1432
1050, 1424,  257,  258, 1433
1051,  336, 1425, 1434,  335
1052, 1425, 1426, 1435, 1434
1053, 1426, 1427, 1436, 1435
1054, 1427, 1428, 1437, 1436
1055, 1428, 1429, 1438, 1437
1056, 1429, 1430, 1439, 1438
1057, 1430, 1431, 1440, 1439
1058, 1431, 1432, 1441, 1440
1059, 1432, 1433, 1442, 1441
1060, 1433,  258,  259, 1442
1061,  335, 1434, 1443,  334
1062, 1434, 1435, 1444, 1443
1063, 1435, 1436, 1445, 1444
1064, 1436, 1437, 1446, 1445
1065, 1437, 1438, 1447, 1446
1066, 1438, 1439, 1448, 1447
1067, 1439, 1440, 1449, 1448
1068, 1440, 1441, 1450, 1449
1069, 1441, 1442, 1451, 1450
1070, 1442,  259,  260, 1451
1071,  334, 1443, 1452,  333
1072, 1443, 1444, 1453, 1452
1073, 1444, 1445, 1454, 1453
1074, 1445, 1446, 1455, 1454
1075, 1446, 1447, 1456, 1455
1076, 1447, 1448, 1457, 1456
1077, 1448, 1449, 1458, 1457
1078, 1449, 1450, 1459, 1458
1079, 1450, 1451, 1460, 1459
1080, 1451,  260,  261, 1460
1081,  333, 1452, 1461,  332
1082, 1452, 1453, 1462, 1461
1083, 1453, 1454, 1463, 1462
1084, 1454, 1455, 1464, 1463
1085, 1455, 1456, 1465, 1464
1086, 1456, 1457, 1466, 1465
1087, 1457, 1458, 1467, 1466
1088, 1458, 1459, 1468, 1467
1089, 1459, 1460, 1469, 1468
1090, 1460,  261,  262, 1469
1091,  332, 1461, 1470,  331
1092, 1461, 1462, 1471, 1470
1093, 1462, 1463, 1472, 1471
1094, 1463, 1464, 1473, 1472
1095, 1464, 1465, 1474, 1473
1096, 1465, 1466, 1475, 1474
1097, 1466, 1467, 1476, 1475
1098, 1467, 1468, 1477, 1476
1099, 1468, 1469, 1478, 1477
1100, 1469,  262,  263, 1478
1101,  331, 1470, 1479,  330
1102, 1470, 1471, 1480, 1479
1103, 1471, 1472, 1481, 1480
1104, 1472, 1473, 1482, 1481
1105, 1473, 1474, 1483, 1482
1106, 1474, 1475, 1484, 1483
1107, 1475, 1476, 1485, 1484
1108, 1476, 1477, 1486, 1485
1109, 1477, 1478, 1487, 1486
1110, 1478,  263,  264, 1487
1111,  330, 1479, 1488,  329
1112, 1479, 1480, 1489, 1488
1113, 1480, 1481, 1490, 1489
1114, 1481, 1482, 1491, 1490
1115, 1482, 1483, 1492, 1491
1116, 1483, 1484, 1493, 1492
1117, 1484, 1485, 1494, 1493
1118, 1485, 1486, 1495, 1494
1119, 1486, 1487, 1496, 1495
1120, 1487,  264,  265, 1496
1121,  329, 1488, 1497,  328
1122, 1488, 1489, 1498, 1497
1123, 1489, 1490, 1499, 1498
1124, 1490, 1491, 1500, 1499
1125, 1491, 1492, 1501, 1500
1126, 1492, 1493, 1502, 1501
1127, 1493, 1494, 1503, 1502
1128, 1494, 1495, 1504, 1503
1129, 1495, 1496, 1505, 1504
1130, 1496,  265,  266, 1505
1131,  328, 1497, 1506,  327
1132, 1497, 1498, 1507, 1506
1133, 1498, 1499, 1508, 1507
1134, 1499, 1500, 1509, 1508
1135, 1500, 1501, 1510, 1509
1136, 1501, 1502, 1511, 1510
1137, 1502, 1503, 1512, 1511
1138, 1503, 1504, 1513, 1512
1139, 1504, 1505, 1514, 1513
1140, 1505,  266,  267, 1514
1141,  327, 1506, 1515,  326
1142, 1506, 1507, 1516, 1515
1143, 1507, 1508, 1517, 1516
1144, 1508, 1509, 1518, 1517
1145, 1509, 1510, 1519, 1518
1146, 1510, 1511, 1520, 1519
1147, 1511, 1512, 1521, 1520
1148, 1512, 1513, 1522, 1521
1149, 1513, 1514, 1523, 1522
1150, 1514,  267,  268, 1523
1151,  326, 1515, 1524,  325
1152, 1515, 1516, 1525, 1524
1153, 1516, 1517, 1526, 1525
1154, 1517, 1518, 1527, 1526
1155, 1518, 1519, 1528, 1527
1156, 1519, 1520, 1529, 1528
1157, 1520, 1521, 1530, 1529
1158, 1521, 1522, 1531, 1530
1159, 1522, 1523, 1532, 1531
1160, 1523,  268,  269, 1532
1161,  325, 1524, 1533,  324
1162, 1524, 1525, 1534, 1533
1163, 1525, 1526, 1535, 1534
1164, 1526, 1527, 1536, 1535
1165, 1527, 1528, 1537, 1536
1166, 1528, 1529, 1538, 1537
1167, 1529, 1530, 1539, 1538
1168, 1530, 1531, 1540, 1539
1169, 1531, 1532, 1541, 1540
1170, 1532,  269,  270, 1541
1171,  324, 1533, 1542,  323
1172, 1533, 1534, 1543, 1542
1173, 1534, 1535, 1544, 1543
1174, 1535, 1536, 1545, 1544
1175, 1536, 1537, 1546, 1545
1176, 1537, 1538, 1547, 1546
1177, 1538, 1539, 1548, 1547
1178, 1539, 1540, 1549, 1548
1179, 1540, 1541, 1550, 1549
1180, 1541,  270,  271, 1550
1181,  323, 1542, 1551,  322
1182, 1542, 1543, 1552, 1551
1183, 1543, 1544, 1553, 1552
1184, 1544, 1545, 1554, 1553
1185, 1545, 1546, 1555, 1554
1186, 1546, 1547, 1556, 1555
1187, 1547, 1548, 1557, 1556
1188, 1548, 1549, 1558, 1557
1189, 1549, 1550, 1559, 1558
1190, 1550,  271,  272, 1559
1191,  322, 1551, 1560,    6
1192, 1551, 1552, 1561, 1560
1193, 1552, 1553, 1562, 1561
1194, 1553, 1554, 1563, 1562
1195, 1554, 1555, 1564, 1563
1196, 1555, 1556, 1565, 1564
1197, 1556, 1557, 1566, 1565
1198, 1557, 1558, 1567, 1566
1199, 1558, 1559, 1568, 1567
1200, 1559,  272,  273, 1568
1201,    6, 1560, 1569,  103
1202, 1560, 1561, 1570, 1569
1203, 1561, 1562, 1571, 1570
1204, 1562, 1563, 1572, 1571
1205, 1563, 1564, 1573, 1572
1206, 1564, 1565, 1574, 1573
1207, 1565, 1566, 1575, 1574
1208, 1566, 1567, 1576, 1575
1209, 1567, 1568, 1577, 1576
1210, 1568,  273,  274, 1577
1211,  103, 1569, 1578,  104
1212, 1569, 1570, 1579, 1578
1213, 1570, 1571, 1580, 1579
1214, 1571, 1572, 1581, 1580
1215, 1572, 1573, 1582, 1581
1216, 1573, 1574, 1583, 1582
1217, 1574, 1575, 1584, 1583
1218, 1575, 1576, 1585, 1584
1219, 1576, 1577, 1586, 1585
1220, 1577,  274,  275, 1586
1221,  104, 1578, 1587,  105
1222, 1578, 1579, 1588, 1587
1223, 1579, 1580, 1589, 1588
1224, 1580, 1581, 1590, 1589
1225, 1581, 1582, 1591, 1590
1226, 1582, 1583, 1592, 1591
1227, 1583, 1584, 1593, 1592
1228, 1584, 1585, 1594, 1593
1229, 1585, 1586, 1595, 1594
1230, 1586,  275,  276, 1595
1231,  105, 1587, 1596,  106
1232, 1587, 1588, 1597, 1596
1233, 1588, 1589, 1598, 1597
1234, 1589, 1590, 1599, 1598
1235, 1590, 1591, 1600, 1599
1236, 1591, 1592, 1601, 1600
1237, 1592, 1593, 1602, 1601
1238, 1593, 1594, 1603, 1602
1239, 1594, 1595, 1604, 1603
1240, 1595,  276,  277, 1604
1241,  106, 1596, 1605,  107
1242, 1596, 1597, 1606, 1605
1243, 1597, 1598, 1607, 1606
1244, 1598, 1599, 1608, 1607
1245, 1599, 1600, 1609, 1608
1246, 1600, 1601, 1610, 1609
1247, 1601, 1602, 1611, 1610
1248, 1602, 1603, 1612, 1611
1249, 1603, 1604, 1613, 1612
1250, 1604,  277,  278, 1613
1251,  107, 1605, 1614,  108
1252, 1605, 1606, 1615, 1614
1253, 1606, 1607, 1616, 1615
1254, 1607, 1608, 1617, 1616
1255, 1608, 1609, 1618, 1617
1256, 1609, 1610, 1619, 1618
1257, 1610, 1611, 1620, 1619
1258, 1611, 1612, 1621, 1620
1259, 1612, 1613, 1622, 1621
1260, 1613,  278,  279, 1622
1261,  108, 1614, 1623,  109
1262, 1614, 1615, 1624, 1623
1263, 1615, 1616, 1625, 1624
1264, 1616, 1617, 1626, 1625
1265, 1617, 1618, 1627, 1626
1266, 1618, 1619, 1628, 1627
1267, 1619, 1620, 1629, 1628
1268, 1620, 1621, 1630, 1629
1269, 1621, 1622, 1631, 1630
1270, 1622,  279,  280, 1631
1271,  109, 1623, 1632,  110
1272, 1623, 1624, 1633, 1632
1273, 1624, 1625, 1634, 1633
1274, 1625, 1626, 1635, 1634
1275, 1626, 1627, 1636, 1635
1276, 1627, 1628, 1637, 1636
1277, 1628, 1629, 1638, 1637
1278, 1629, 1630, 1639, 1638
1279, 1630, 1631, 1640, 1639
1280, 1631,  280,  281, 1640
1281,  110, 1632, 1641,  111
1282, 1632, 1633, 1642, 1641
1283, 1633, 1634, 1643, 1642
1284, 1634, 1635, 1644, 1643
1285, 1635, 1636, 1645, 1644
1286, 1636, 1637, 1646, 1645
1287, 1637, 1638, 1647, 1646
1288, 1638, 1639, 1648, 1647
1289, 1639, 1640, 1649, 1648
1290, 1640,  281,  282, 1649
1291,  111, 1641, 1650,  112
1292, 1641, 1642, 1651, 1650
1293, 1642, 1643, 1652, 1651
1294, 1643, 1644, 1653, 1652
1295, 1644, 1645, 1654, 1653
1296, 1645, 1646, 1655, 1654
1297, 1646, 1647, 1656, 1655
1298, 1647, 1648, 1657, 1656
1299, 1648, 1649, 1658, 1657
1300, 1649,  282,  283, 1658
1301,  112, 1650, 1659,  113
1302, 1650, 1651, 1660, 1659
1303, 1651, 1652, 1661, 1660
1304, 1652, 1653, 1662, 1661
1305, 1653, 1654, 1663, 1662
1306, 1654, 1655, 1664, 1663
1307, 1655, 1656, 1665, 1664
1308, 1656, 1657, 1666, 1665
1309, 1657, 1658, 1667, 1666
1310, 1658,  283,  284, 1667
1311,  113, 1659, 1668,  114
1312, 1659, 1660, 1669, 1668
1313, 1660, 1661, 1670, 1669
1314, 1661, 1662, 1671, 1670
1315, 1662, 1663, 1672, 1671
1316, 1663, 1664, 1673, 1672
1317, 1664, 1665, 1674, 1673
1318, 1665, 1666, 1675, 1674
1319, 1666, 1667, 1676, 1675
1320, 1667,  284,  285, 1676
1321,  114, 1668, 1677,  115
1322, 1668, 1669, 1678, 1677
1323, 1669, 1670, 1679, 1678
1324, 1670, 1671, 1680, 1679
1325, 1671, 1672, 1681, 1680
1326, 1672, 1673, 1682, 1681
1327, 1673, 1674, 1683, 1682
1328, 1674, 1675, 1684, 1683
1329, 1675, 1676, 1685, 1684
1330, 1676,  285,  286, 1685
1331,  115, 1677, 1686,  116
1332, 1677, 1678, 1687, 1686
1333, 1678, 1679, 1688, 1687
1334, 1679, 1680, 1689, 1688
1335, 1680, 1681, 1690, 1689
1336, 1681, 1682, 1691, 1690
1337, 1682, 1683, 1692, 1691
1338, 1683, 1684, 1693, 1692
1339, 1684, 1685, 1694, 1693
1340, 1685,  286,  287, 1694
1341,  116, 1686, 1695,  117
1342, 1686, 1687, 1696, 1695
1343, 1687, 1688, 1697, 1696
1344, 1688, 1689, 1698, 1697
1345, 1689, 1690, 1699, 1698
1346, 1690, 1691, 1700, 1699
1347, 1691, 1692, 1701, 1700
1348, 1692, 1693, 1702, 1701
1349, 1693, 1694, 1703, 1702
1350, 1694,  287,  288, 1703
1351,  117, 1695, 1704,  118
1352, 1695, 1696, 1705, 1704
1353, 1696, 1697, 1706, 1705
1354, 1697, 1698, 1707, 1706
1355, 1698, 1699, 1708, 1707
1356, 1699, 1700, 1709, 1708
1357, 1700, 1701, 1710, 1709
1358, 1701, 1702, 1711, 1710
1359, 1702, 1703, 1712, 1711
1360, 1703,  288,  289, 1712
1361,  118, 1704, 1713,  119
1362, 1704, 1705, 1714, 1713
1363, 1705, 1706, 1715, 1714
1364, 1706, 1707, 1716, 1715
1365, 1707, 1708, 1717, 1716
1366, 1708, 1709, 1718, 1717
1367, 1709, 1710, 1719, 1718
1368, 1710, 1711, 1720, 1719
1369, 1711, 1712, 1721, 1720
1370, 1712,  289,  290, 1721
1371,  119, 1713, 1722,  120
1372, 1713, 1714, 1723, 1722
1373, 1714, 1715, 1724, 1723
1374, 1715, 1716, 1725, 1724
1375, 1716, 1717, 1726, 1725
1376, 1717, 1718, 1727, 1726
1377, 1718, 1719, 1728, 1727
1378, 1719, 1720, 1729, 1728
1379, 1720, 1721, 1730, 1729
1380, 1721,  290,  291, 1730
1381,  120, 1722, 1731,  121
1382, 1722, 1723, 1732, 1731
1383, 1723, 1724, 1733, 1732
1384, 1724, 1725, 1734, 1733
1385, 1725, 1726, 1735, 1734
1386, 1726, 1727, 1736, 1735
1387, 1727, 1728, 1737, 1736
1388, 1728, 1729, 1738, 1737
1389, 1729, 1730, 1739, 1738
1390, 1730,  291,  292, 1739
1391,  121, 1731, 1740,  122
1392, 1731, 1732, 1741, 1740
1393, 1732, 1733, 1742, 1741
1394, 1733, 1734, 1743, 1742
1395, 1734, 1735, 1744, 1743
1396, 1735, 1736, 1745, 1744
1397, 1736, 1737, 1746, 1745
1398, 1737, 1738, 1747, 1746
1399, 1738, 1739, 1748, 1747
1400, 1739,  292,  293, 1748
1401,  122, 1740, 1749,  123
1402, 1740, 1741, 1750, 1749
1403, 1741, 1742, 1751, 1750
1404, 1742, 1743, 1752, 1751
1405, 1743, 1744, 1753, 1752
1406, 1744, 1745, 1754, 1753
1407, 1745, 1746, 1755, 1754
1408, 1746, 1747, 1756, 1755
1409, 1747, 1748, 1757, 1756
1410, 1748,  293,  294, 1757
1411,  123, 1749, 1758,  124
1412, 1749, 1750, 1759, 1758
1413, 1750, 1751, 1760, 1759
1414, 1751, 1752, 1761, 1760
1415, 1752, 1753, 1762, 1761
1416, 1753, 1754, 1763, 1762
1417, 1754, 1755, 1764, 1763
1418, 1755, 1756, 1765, 1764
1419, 1756, 1757, 1766, 1765
1420, 1757,  294,  295, 1766
1421,  124, 1758, 1767,  125
1422, 1758, 1759, 1768, 1767
1423, 1759, 1760, 1769, 1768
1424, 1760, 1761, 1770, 1769
1425, 1761, 1762, 1771, 1770
1426, 1762, 1763, 1772, 1771
1427, 1763, 1764, 1773, 1772
1428, 1764, 1765, 1774, 1773
1429, 1765, 1766, 1775, 1774
1430, 1766,  295,  296, 1775
1431,  125, 1767, 1776,  126
1432, 1767, 1768, 1777, 1776
1433, 1768, 1769, 1778, 1777
1434, 1769, 1770, 1779, 1778
1435, 1770, 1771, 1780, 1779
1436, 1771, 1772, 1781, 1780
1437, 1772, 1773, 1782, 1781
1438, 1773, 1774, 1783, 1782
1439, 1774, 1775, 1784, 1783
1440, 1775,  296,  297, 1784
1441,  126, 1776, 1785,  127
1442, 1776, 1777, 1786, 1785
1443, 1777, 1778, 1787, 1786
1444, 1778, 1779, 1788, 1787
1445, 1779, 1780, 1789, 1788
1446, 1780, 1781, 1790, 1789
1447, 1781, 1782, 1791, 1790
1448, 1782, 1783, 1792, 1791
1449, 1783, 1784, 1793, 1792
1450, 1784,  297,  298, 1793
1451,  127, 1785, 1794,  128
1452, 1785, 1786, 1795, 1794
1453, 1786, 1787, 1796, 1795
1454, 1787, 1788, 1797, 1796
1455, 1788, 1789, 1798, 1797
1456, 1789, 1790, 1799, 1798
1457, 1790, 1791, 1800, 1799
1458, 1791, 1792, 1801, 1800
1459, 1792, 1793, 1802, 1801
1460, 1793,  298,  299, 1802
1461,  128, 1794, 1803,  129
1462, 1794, 1795, 1804, 1803
1463, 1795, 1796, 1805, 1804
1464, 1796, 1797, 1806, 1805
1465, 1797, 1798, 1807, 1806
1466, 1798, 1799, 1808, 1807
1467, 1799, 1800, 1809, 1808
1468, 1800, 1801, 1810, 1809
1469, 1801, 1802, 1811, 1810
1470, 1802,  299,  300, 1811
1471,  129, 1803, 1812,  130
1472, 1803, 1804, 1813, 1812
1473, 1804, 1805, 1814, 1813
1474, 1805, 1806, 1815, 1814
1475, 1806, 1807, 1816, 1815
1476, 1807, 1808, 1817, 1816
1477, 1808, 1809, 1818, 1817
1478, 1809, 1810, 1819, 1818
1479, 1810, 1811, 1820, 1819
1480, 1811,  300,  301, 1820
1481,  130, 1812, 1821,  131
1482, 1812, 1813, 1822, 1821
1483, 1813, 1814, 1823, 1822
1484, 1814, 1815, 1824, 1823
1485, 1815, 1816, 1825, 1824
1486, 1816, 1817, 1826, 1825
1487, 1817, 1818, 1827, 1826
1488, 1818, 1819, 1828, 1827
1489, 1819, 1820, 1829, 1828
1490, 1820,  301,  302, 1829
1491,  131, 1821, 1830,  132
1492, 1821, 1822, 1831, 1830
1493, 1822, 1823, 1832, 1831
1494, 1823, 1824, 1833, 1832
1495, 1824, 1825, 1834, 1833
1496, 1825, 1826, 1835, 1834
1497, 1826, 1827, 1836, 1835
1498, 1827, 1828, 1837, 1836
1499, 1828, 1829, 1838, 1837
1500, 1829,  302,  303, 1838
1501,  132, 1830, 1839,  133
1502, 1830, 1831, 1840, 1839
1503, 1831, 1832, 1841, 1840
1504, 1832, 1833, 1842, 1841
1505, 1833, 1834, 1843, 1842
1506, 1834, 1835, 1844, 1843
1507, 1835, 1836, 1845, 1844
1508, 1836, 1837, 1846, 1845
1509, 1837, 1838, 1847, 1846
1510, 1838,  303,  304, 1847
1511,  133, 1839, 1848,  134
1512, 1839, 1840, 1849, 1848
1513, 1840, 1841, 1850, 1849
1514, 1841, 1842, 1851, 1850
1515, 1842, 1843, 1852, 1851
1516, 1843, 1844, 1853, 1852
1517, 1844, 1845, 1854, 1853
1518, 1845, 1846, 1855, 1854
1519, 1846, 1847, 1856, 1855
1520, 1847,  304,  305, 1856
1521,  134, 1848, 1857,  135
1522, 1848, 1849, 1858, 1857
1523, 1849, 1850, 1859, 1858
1524, 1850, 1851, 1860, 1859
1525, 1851, 1852, 1861, 1860
1526, 1852, 1853, 1862, 1861
1527, 1853, 1854, 1863, 1862
1528, 1854, 1855, 1864, 1863
1529, 1855, 1856, 1865, 1864
1530, 1856,  305,  306, 1865
1531,  135, 1857, 1866,  136
1532, 1857, 1858, 1867, 1866
1533, 1858, 1859, 1868, 1867
1534, 1859, 1860, 1869, 1868
1535, 1860, 1861, 1870, 1869
1536, 1861, 1862, 1871, 1870
1537, 1862, 1863, 1872, 1871
1538, 1863, 1864, 1873, 1872
1539, 1864, 1865, 1874, 1873
1540, 1865,  306,  307, 1874
1541,  136, 1866, 1875,  137
1542, 1866, 1867, 1876, 1875
1543, 1867, 1868, 1877, 1876
1544, 1868, 1869, 1878, 1877
1545, 1869, 1870, 1879, 1878
1546, 1870, 1871, 1880, 1879
1547, 1871, 1872, 1881, 1880
1548, 1872, 1873, 1882, 1881
1549, 1873, 1874, 1883, 1882
1550, 1874,  307,  308, 1883
1551,  137, 1875, 1884,  138
1552, 1875, 1876, 1885, 1884
1553, 1876, 1877, 1886, 1885
1554, 1877, 1878, 1887, 1886
1555, 1878, 1879, 1888, 1887
1556, 1879, 1880, 1889, 1888
1557, 1880, 1881, 1890, 1889
1558, 1881, 1882, 1891, 1890
1559, 1882, 1883, 1892, 1891
1560, 1883,  308,  309, 1892
1561,  138, 1884, 1893,  139
1562, 1884, 1885, 1894, 1893
1563, 1885, 1886, 1895, 1894
1564, 1886, 1887, 1896, 1895
1565, 1887, 1888, 1897, 1896
1566, 1888, 1889, 1898, 1897
1567, 1889, 1890, 1899, 1898
1568, 1890, 1891, 1900, 1899
1569, 1891, 1892, 1901, 1900
1570, 1892,  309,  310, 1901
1571,  139, 1893, 1902,  140
1572, 1893, 1894, 1903, 1902
1573, 1894, 1895, 1904, 1903
1574, 1895, 1896, 1905, 1904
1575, 1896, 1897, 1906, 1905
1576, 1897, 1898, 1907, 1906
1577, 1898, 1899, 1908, 1907
1578, 1899, 1900, 1909, 1908
1579, 1900, 1901, 1910, 1909
1580, 1901,  310,  311, 1910
1581,  140, 1902, 1911,  141
1582, 1902, 1903, 1912, 1911
1583, 1903, 1904, 1913, 1912
1584, 1904, 1905, 1914, 1913
1585, 1905, 1906, 1915, 1914
1586, 1906, 1907, 1916, 1915
1587, 1907, 1908, 1917, 1916
1588, 1908, 1909, 1918, 1917
1589, 1909, 1910, 1919, 1918
1590, 1910,  311,  312, 1919
1591,  141, 1911,  321,    7
1592, 1911, 1912,  320,  321
1593, 1912, 1913,  319,  320
1594, 1913, 1914,  318,  319
1595, 1914, 1915,  317,  318
1596, 1915, 1916,  316,  317
1597, 1916, 1917,  315,  316
1598, 1917, 1918,  314,  315
1599, 1918, 1919,  313,  314
1600, 1919,  312,   10,  313
1601,    6,  102, 1920,  322
1602,  102,  101, 1921, 1920
1603,  101,  100, 1922, 1921
1604,  100,   99, 1923, 1922
1605,   99,    5,  361, 1923
1606,  322, 1920, 1924,  323
1607, 1920, 1921, 1925, 1924
1608, 1921, 1922, 1926, 1925
1609, 1922, 1923, 1927, 1926
1610, 1923,  361,  362, 1927
1611,  323, 1924, 1928,  324
1612, 1924, 1925, 1929, 1928
1613, 1925, 1926, 1930, 1929
1614, 1926, 1927, 1931, 1930
1615, 1927,  362,  363, 1931
1616,  324, 1928, 1932,  325
1617, 1928, 1929, 1933, 1932
1618, 1929, 1930, 1934, 1933
1619, 1930, 1931, 1935, 1934
1620, 1931,  363,  364, 1935
1621,  325, 1932, 1936,  326
1622, 1932, 1933, 1937, 1936
1623, 1933, 1934, 1938, 1937
1624, 1934, 1935, 1939, 1938
1625, 1935,  364,  365, 1939
1626,  326, 1936, 1940,  327
1627, 1936, 1937, 1941, 1940
1628, 1937, 1938, 1942, 1941
1629, 1938, 1939, 1943, 1942
1630, 1939,  365,  366, 1943
1631,  327, 1940, 1944,  328
1632, 1940, 1941, 1945, 1944
1633, 1941, 1942, 1946, 1945
1634, 1942, 1943, 1947, 1946
1635, 1943,  366,  367, 1947
1636,  328, 1944, 1948,  329
1637, 1944, 1945, 1949, 1948
1638, 1945, 1946, 1950, 1949
1639, 1946, 1947, 1951, 1950
1640, 1947,  367,  368, 1951
1641,  329, 1948, 1952,  330
1642, 1948, 1949, 1953, 1952
1643, 1949, 1950, 1954, 1953
1644, 1950, 1951, 1955, 1954
1645, 1951,  368,  369, 1955
1646,  330, 1952, 1956,  331
1647, 1952, 1953, 1957, 1956
1648, 1953, 1954, 1958, 1957
1649, 1954, 1955, 1959, 1958
1650, 1955,  369,  370, 1959
1651,  331, 1956, 1960,  332
1652, 1956, 1957, 1961, 1960
1653, 1957, 1958, 1962, 1961
1654, 1958, 1959, 1963, 1962
1655, 1959,  370,  371, 1963
1656,  332, 1960, 1964,  333
1657, 1960, 1961, 1965, 1964
1658, 1961, 1962, 1966, 1965
1659, 1962, 1963, 1967, 1966
1660, 1963,  371,  372, 1967
1661,  333, 1964, 1968,  334
1662, 1964, 1965, 1969, 1968
1663, 1965, 1966, 1970, 1969
1664, 1966, 1967, 1971, 1970
1665, 1967,  372,  373, 1971
1666,  334, 1968, 1972,  335
1667, 1968, 1969, 1973, 1972
1668, 1969, 1970, 1974, 1973
1669, 1970, 1971, 1975, 1974
1670, 1971,  373,  374, 1975
1671,  335, 1972, 1976,  336
1672, 1972, 1973, 1977, 1976
1673, 1973, 1974, 1978, 1977
1674, 1974, 1975, 1979, 1978
1675, 1975,  374,  375, 1979
1676,  336, 1976, 1980,  337
1677, 1976, 1977, 1981, 1980
1678, 1977, 1978, 1982, 1981
1679, 1978, 1979, 1983, 1982
1680, 1979,  375,  376, 1983
1681,  337, 1980, 1984,  338
1682, 1980, 1981, 1985, 1984
1683, 1981, 1982, 1986, 1985
1684, 1982, 1983, 1987, 1986
1685, 1983,  376,  377, 1987
1686,  338, 1984, 1988,  339
1687, 1984, 1985, 1989, 1988
1688, 1985, 1986, 1990, 1989
1689, 1986, 1987, 1991, 1990
1690, 1987,  377,  378, 1991
1691,  339, 1988, 1992,  340
1692, 1988, 1989, 1993, 1992
1693, 1989, 1990, 1994, 1993
1694, 1990, 1991, 1995, 1994
1695, 1991,  378,  379, 1995
1696,  340, 1992, 1996,  341
1697, 1992, 1993, 1997, 1996
1698, 1993, 1994, 1998, 1997
1699, 1994, 1995, 1999, 1998
1700, 1995,  379,  380, 1999
1701,  341, 1996, 2000,  342
1702, 1996, 1997, 2001, 2000
1703, 1997, 1998, 2002, 2001
1704, 1998, 1999, 2003, 2002
1705, 1999,  380,  381, 2003
1706,  342, 2000, 2004,  343
1707, 2000, 2001, 2005, 2004
1708, 2001, 2002, 2006, 2005
1709, 2002, 2003, 2007, 2006
1710, 2003,  381,  382, 2007
1711,  343, 2004, 2008,  344
1712, 2004, 2005, 2009, 2008
1713, 2005, 2006, 2010, 2009
1714, 2006, 2007, 2011, 2010
1715, 2007,  382,  383, 2011
1716,  344, 2008, 2012,  345
1717, 2008, 2009, 2013, 2012
1718, 2009, 2010, 2014, 2013
1719, 2010, 2011, 2015, 2014
1720, 2011,  383,  384, 2015
1721,  345, 2012, 2016,  346
1722, 2012, 2013, 2017, 2016
1723, 2013, 2014, 2018, 2017
1724, 2014, 2015, 2019, 2018
1725, 2015,  384,  385, 2019
1726,  346, 2016, 2020,  347
1727, 2016, 2017, 2021, 2020
1728, 2017, 2018, 2022, 2021
1729, 2018, 2019, 2023, 2022
1730, 2019,  385,  386, 2023
1731,  347, 2020, 2024,  348
1732, 2020, 2021, 2025, 2024
1733, 2021, 2022, 2026, 2025
1734, 2022, 2023, 2027, 2026
1735, 2023,  386,  387, 2027
1736,  348, 2024, 2028,  349
1737, 2024, 2025, 2029, 2028
1738, 2025, 2026, 2030, 2029
1739, 2026, 2027, 2031, 2030
1740, 2027,  387,  388, 2031
1741,  349, 2028, 2032,  350
1742, 2028, 2029, 2033, 2032
1743, 2029, 2030, 2034, 2033
1744, 2030, 2031, 2035, 2034
1745, 2031,  388,  389, 2035
1746,  350, 2032, 2036,  351
1747, 2032, 2033, 2037, 2036
1748, 2033, 2034, 2038, 2037
1749, 2034, 2035, 2039, 2038
1750, 2035,  389,  390, 2039
1751,  351, 2036, 2040,  352
1752, 2036, 2037, 2041, 2040
1753, 2037, 2038, 2042, 2041
1754, 2038, 2039, 2043, 2042
1755, 2039,  390,  391, 2043
1756,  352, 2040, 2044,  353
1757, 2040, 2041, 2045, 2044
1758, 2041, 2042, 2046, 2045
1759, 2042, 2043, 2047, 2046
1760, 2043,  391,  392, 2047
1761,  353, 2044, 2048,  354
1762, 2044, 2045, 2049, 2048
1763, 2045, 2046, 2050, 2049
1764, 2046, 2047, 2051, 2050
1765, 2047,  392,  393, 2051
1766,  354, 2048, 2052,  355
1767, 2048, 2049, 2053, 2052
1768, 2049, 2050, 2054, 2053
1769, 2050, 2051, 2055, 2054
1770, 2051,  393,  394, 2055
1771,  355, 2052, 2056,  356
1772, 2052, 2053, 2057, 2056
1773, 2053, 2054, 2058, 2057
1774, 2054, 2055, 2059, 2058
1775, 2055,  394,  395, 2059
1776,  356, 2056, 2060,  357
1777, 2056, 2057, 2061, 2060
1778, 2057, 2058, 2062, 2061
1779, 2058, 2059, 2063, 2062
1780, 2059,  395,  396, 2063
1781,  357, 2060, 2064,  358
1782, 2060, 2061, 2065, 2064
1783, 2061, 2062, 2066, 2065
1784, 2062, 2063, 2067, 2066
1785, 2063,  396,  397, 2067
1786,  358, 2064, 2068,  359
1787, 2064, 2065, 2069, 2068
1788, 2065, 2066, 2070, 2069
1789, 2066, 2067, 2071, 2070
1790, 2067,  397,  398, 2071
1791,  359, 2068, 2072,  360
1792, 2068, 2069, 2073, 2072
1793, 2069, 2070, 2074, 2073
1794, 2070, 2071, 2075, 2074
1795, 2071,  398,  399, 2075
1796,  360, 2072,   13,    1
1797, 2072, 2073,   14,   13
1798, 2073, 2074,   15,   14
1799, 2074, 2075,   16,   15
1800, 2075,  399,    2,   16
1801,    3,   55, 2076,  536
1802,   55,   54, 2077, 2076
1803,   54,   53, 2078, 2077
1804,   53,   52, 2079, 2078
1805,   52,   51, 2080, 2079
1806,   51,   50, 2081, 2080
1807,   50,   49, 2082, 2081
1808,   49,   48, 2083, 2082
1809,   48,   47, 2084, 2083
1810,   47,   46, 2085, 2084
1811,   46,   45, 2086, 2085
1812,   45,   44, 2087, 2086
1813,   44,   43, 2088, 2087
1814,   43,   42, 2089, 2088
1815,   42,   41, 2090, 2089
1816,   41,   40, 2091, 2090
1817,   40,   39, 2092, 2091
1818,   39,   38, 2093, 2092
1819,   38,   37, 2094, 2093
1820,   37,   36, 2095, 2094
1821,   36,   35, 2096, 2095
1822,   35,   34, 2097, 2096
1823,   34,   33, 2098, 2097
1824,   33,   32, 2099, 2098
1825,   32,   31, 2100, 2099
1826,   31,   30, 2101, 2100
1827,   30,   29, 2102, 2101
1828,   29,   28, 2103, 2102
1829,   28,   27, 2104, 2103
1830,   27,   26, 2105, 2104
1831,   26,   25, 2106, 2105
1832,   25,   24, 2107, 2106
1833,   24,   23, 2108, 2107
1834,   23,   22, 2109, 2108
1835,   22,   21, 2110, 2109
1836,   21,   20, 2111, 2110
1837,   20,   19, 2112, 2111
1838,   19,   18, 2113, 2112
1839,   18,   17, 2114, 2113
1840,   17,    2, 2115, 2114
1841,    2,  399, 2116, 2115
1842,  399,  398, 2117, 2116
1843,  398,  397, 2118, 2117
1844,  397,  396, 2119, 2118
1845,  396,  395, 2120, 2119
1846,  395,  394, 2121, 2120
1847,  394,  393, 2122, 2121
1848,  393,  392, 2123, 2122
1849,  392,  391, 2124, 2123
1850,  391,  390, 2125, 2124
1851,  390,  389, 2126, 2125
1852,  389,  388, 2127, 2126
1853,  388,  387, 2128, 2127
1854,  387,  386, 2129, 2128
1855,  386,  385, 2130, 2129
1856,  385,  384, 2131, 2130
1857,  384,  383, 2132, 2131
1858,  383,  382, 2133, 2132
1859,  382,  381, 2134, 2133
1860,  381,  380, 2135, 2134
1861,  380,  379, 2136, 2135
1862,  379,  378, 2137, 2136
1863,  378,  377, 2138, 2137
1864,  377,  376, 2139, 2138
1865,  376,  375, 2140, 2139
1866,  375,  374, 2141, 2140
1867,  374,  373, 2142, 2141
1868,  373,  372, 2143, 2142
1869,  372,  371, 2144, 2143
1870,  371,  370, 2145, 2144
1871,  370,  369, 2146, 2145
1872,  369,  368, 2147, 2146
1873,  368,  367, 2148, 2147
1874,  367,  366, 2149, 2148
1875,  366,  365, 2150, 2149
1876,  365,  364, 2151, 2150
1877,  364,  363, 2152, 2151
1878,  363,  362, 2153, 2152
1879,  362,  361, 2154, 2153
1880,  361,    5, 2155, 2154
1881,    5,  184, 2156, 2155
1882,  184,  183, 2157, 2156
1883,  183,  182, 2158, 2157
1884,  182,  181, 2159, 2158
1885,  181,  180, 2160, 2159
1886,  180,  179, 2161, 2160
1887,  179,  178, 2162, 2161
1888,  178,  177, 2163, 2162
1889,  177,  176, 2164, 2163
1890,  176,  175, 2165, 2164
1891,  175,  174, 2166, 2165
1892,  174,  173, 2167, 2166
1893,  173,  172, 2168, 2167
1894,  172,  171, 2169, 2168
1895,  171,  170, 2170, 2169
1896,  170,  169, 2171, 2170
1897,  169,  168, 2172, 2171
1898,  168,  167, 2173, 2172
1899,  167,  166, 2174, 2173
1900,  166,  165, 2175, 2174
1901,  165,  164, 2176, 2175
1902,  164,  163, 2177, 2176
1903,  163,  162, 2178, 2177
1904,  162,  161, 2179, 2178
1905,  161,  160, 2180, 2179
1906,  160,  159, 2181, 2180
1907,  159,  158, 2182, 2181
1908,  158,  157, 2183, 2182
1909,  157,  156, 2184, 2183
1910,  156,  155, 2185, 2184
1911,  155,  154, 2186, 2185
1912,  154,  153, 2187, 2186
1913,  153,  152, 2188, 2187
1914,  152,  151, 2189, 2188
1915,  151,  150, 2190, 2189
1916,  150,  149, 2191, 2190
1917,  149,  148, 2192, 2191
1918,  148,  147, 2193, 2192
1919,  147,  146, 2194, 2193
1920,  146,    8,  400, 2194
1921,  536, 2076, 2195,  535
1922, 2076, 2077, 2196, 2195
1923, 2077, 2078, 2197, 2196
1924, 2078, 2079, 2198, 2197
1925, 2079, 2080, 2199, 2198
1926, 2080, 2081, 2200, 2199
1927, 2081, 2082, 2201, 2200
1928, 2082, 2083, 2202, 2201
1929, 2083, 2084, 2203, 2202
1930, 2084, 2085, 2204, 2203
1931, 2085, 2086, 2205, 2204
1932, 2086, 2087, 2206, 2205
1933, 2087, 2088, 2207, 2206
1934, 2088, 2089, 2208, 2207
1935, 2089, 2090, 2209, 2208
1936, 2090, 2091, 2210, 2209
1937, 2091, 2092, 2211, 2210
1938, 2092, 2093, 2212, 2211
1939, 2093, 2094, 2213, 2212
1940, 2094, 2095, 2214, 2213
1941, 2095, 2096, 2215, 2214
1942, 2096, 2097, 2216, 2215
1943, 2097, 2098, 2217, 2216
1944, 2098, 2099, 2218, 2217
1945, 2099, 2100, 2219, 2218
1946, 2100, 2101, 2220, 2219
1947, 2101, 2102, 2221, 2220
1948, 2102, 2103, 2222, 2221
1949, 2103, 2104, 2223, 2222
1950, 2104, 2105, 2224, 2223
1951, 2105, 2106, 2225, 2224
1952, 2106, 2107, 2226, 2225
1953, 2107, 2108, 2227, 2226
1954, 2108, 2109, 2228, 2227
1955, 2109, 2110, 2229, 2228
1956, 2110, 2111, 2230, 2229
1957, 2111, 2112, 2231, 2230
1958, 2112, 2113, 2232, 2231
1959, 2113, 2114, 2233, 2232
1960, 2114, 2115, 2234, 2233
1961, 2115, 2116, 2235, 2234
1962, 2116, 2117, 2236, 2235
1963, 2117, 2118, 2237, 2236
1964, 2118, 2119, 2238, 2237
1965, 2119, 2120, 2239, 2238
1966, 2120, 2121, 2240, 2239
1967, 2121, 2122, 2241, 2240
1968, 2122, 2123, 2242, 2241
1969, 2123, 2124, 2243, 2242
1970, 2124, 2125, 2244, 2243
1971, 2125, 2126, 2245, 2244
1972, 2126, 2127, 2246, 2245
1973, 2127, 2128, 2247, 2246
1974, 2128, 2129, 2248, 2247
1975, 2129, 2130, 2249, 2248
1976, 2130, 2131, 2250, 2249
1977, 2131, 2132, 2251, 2250
1978, 2132, 2133, 2252, 2251
1979, 2133, 2134, 2253, 2252
1980, 2134, 2135, 2254, 2253
1981, 2135, 2136, 2255, 2254
1982, 2136, 2137, 2256, 2255
1983, 2137, 2138, 2257, 2256
1984, 2138, 2139, 2258, 2257
1985, 2139, 2140, 2259, 2258
1986, 2140, 2141, 2260, 2259
1987, 2141, 2142, 2261, 2260
1988, 2142, 2143, 2262, 2261
1989, 2143, 2144, 2263, 2262
1990, 2144, 2145, 2264, 2263
1991, 2145, 2146, 2265, 2264
1992, 2146, 2147, 2266, 2265
1993, 2147, 2148, 2267, 2266
1994, 2148, 2149, 2268, 2267
1995, 2149, 2150, 2269, 2268
1996, 2150, 2151, 2270, 2269
1997, 2151, 2152, 2271, 2270
1998, 2152, 2153, 2272, 2271
1999, 2153, 2154, 2273, 2272
2000, 2154, 2155, 2274, 2273
2001, 2155, 2156, 2275, 2274
2002, 2156, 2157, 2276, 2275
2003, 2157, 2158, 2277, 2276
2004, 2158, 2159, 2278, 2277
2005, 2159, 2160, 2279, 2278
2006, 2160, 2161, 2280, 2279
2007, 2161, 2162, 2281, 2280
2008, 2162, 2163, 2282, 2281
2009, 2163, 2164, 2283, 2282
2010, 2164, 2165, 2284, 2283
2011, 2165, 2166, 2285, 2284
2012, 2166, 2167, 2286, 2285
2013, 2167, 2168, 2287, 2286
2014, 2168, 2169, 2288, 2287
2015, 2169, 2170, 2289, 2288
2016, 2170, 2171, 2290, 2289
2017, 2171, 2172, 2291, 2290
2018, 2172, 2173, 2292, 2291
2019, 2173, 2174, 2293, 2292
2020, 2174, 2175, 2294, 2293
2021, 2175, 2176, 2295, 2294
2022, 2176, 2177, 2296, 2295
2023, 2177, 2178, 2297, 2296
2024, 2178, 2179, 2298, 2297
2025, 2179, 2180, 2299, 2298
2026, 2180, 2181, 2300, 2299
2027, 2181, 2182, 2301, 2300
2028, 2182, 2183, 2302, 2301
2029, 2183, 2184, 2303, 2302
2030, 2184, 2185, 2304, 2303
2031, 2185, 2186, 2305, 2304
2032, 2186, 2187, 2306, 2305
2033, 2187, 2188, 2307, 2306
2034, 2188, 2189, 2308, 2307
2035, 2189, 2190, 2309, 2308
2036, 2190, 2191, 2310, 2309
2037, 2191, 2192, 2311, 2310
2038, 2192, 2193, 2312, 2311
2039, 2193, 2194, 2313, 2312
2040, 2194,  400,  401, 2313
2041,  535, 2195, 2314,  534
2042, 2195, 2196, 2315, 2314
2043, 2196, 2197, 2316, 2315
2044, 2197, 2198, 2317, 2316
2045, 2198, 2199, 2318, 2317
2046, 2199, 2200, 2319, 2318
2047, 2200, 2201, 2320, 2319
2048, 2201, 2202, 2321, 2320
2049, 2202, 2203, 2322, 2321
2050, 2203, 2204, 2323, 2322
2051, 2204, 2205, 2324, 2323
2052, 2205, 2206, 2325, 2324
2053, 2206, 2207, 2326, 2325
2054, 2207, 2208, 2327, 2326
2055, 2208, 2209, 2328, 2327
2056, 2209, 2210, 2329, 2328
2057, 2210, 2211, 2330, 2329
2058, 2211, 2212, 2331, 2330
2059, 2212, 2213, 2332, 2331
2060, 2213, 2214, 2333, 2332
2061, 2214, 2215, 2334, 2333
2062, 2215, 2216, 2335, 2334
2063, 2216, 2217, 2336, 2335
2064, 2217, 2218, 2337, 2336
2065, 2218, 2219, 2338, 2337
2066, 2219, 2220, 2339, 2338
2067, 2220, 2221, 2340, 2339
2068, 2221, 2222, 2341, 2340
2069, 2222, 2223, 2342, 2341
2070, 2223, 2224, 2343, 2342
2071, 2224, 2225, 2344, 2343
2072, 2225, 2226, 2345, 2344
2073, 2226, 2227, 2346, 2345
2074, 2227, 2228, 2347, 2346
2075, 2228, 2229, 2348, 2347
2076, 2229, 2230, 2349, 2348
2077, 2230, 2231, 2350, 2349
2078, 2231, 2232, 2351, 2350
2079, 2232, 2233, 2352, 2351
2080, 2233, 2234, 2353, 2352
2081, 2234, 2235, 2354, 2353
2082, 2235, 2236, 2355, 2354
2083, 2236, 2237, 2356, 2355
2084, 2237, 2238, 2357, 2356
2085, 2238, 2239, 2358, 2357
2086, 2239, 2240, 2359, 2358
2087, 2240, 2241, 2360, 2359
2088, 2241, 2242, 2361, 2360
2089, 2242, 2243, 2362, 2361
2090, 2243, 2244, 2363, 2362
2091, 2244, 2245, 2364, 2363
2092, 2245, 2246, 2365, 2364
2093, 2246, 2247, 2366, 2365
2094, 2247, 2248, 2367, 2366
2095, 2248, 2249, 2368, 2367
2096, 2249, 2250, 2369, 2368
2097, 2250, 2251, 2370, 2369
2098, 2251, 2252, 2371, 2370
2099, 2252, 2253, 2372, 2371
2100, 2253, 2254, 2373, 2372
2101, 2254, 2255, 2374, 2373
2102, 2255, 2256, 2375, 2374
2103, 2256, 2257, 2376, 2375
2104, 2257, 2258, 2377, 2376
2105, 2258, 2259, 2378, 2377
2106, 2259, 2260, 2379, 2378
2107, 2260, 2261, 2380, 2379
2108, 2261, 2262, 2381, 2380
2109, 2262, 2263, 2382, 2381
2110, 2263, 2264, 2383, 2382
2111, 2264, 2265, 2384, 2383
2112, 2265, 2266, 2385, 2384
2113, 2266, 2267, 2386, 2385
2114, 2267, 2268, 2387, 2386
2115, 2268, 2269, 2388, 2387
2116, 2269, 2270, 2389, 2388
2117, 2270, 2271, 2390, 2389
2118, 2271, 2272, 2391, 2390
2119, 2272, 2273, 2392, 2391
2120, 2273, 2274, 2393, 2392
2121, 2274, 2275, 2394, 2393
2122, 2275, 2276, 2395, 2394
2123, 2276, 2277, 2396, 2395
2124, 2277, 2278, 2397, 2396
2125, 2278, 2279, 2398, 2397
2126, 2279, 2280, 2399, 2398
2127, 2280, 2281, 2400, 2399
2128, 2281, 2282, 2401, 2400
2129, 2282, 2283, 2402, 2401
2130, 2283, 2284, 2403, 2402
2131, 2284, 2285, 2404, 2403
2132, 2285, 2286, 2405, 2404
2133, 2286, 2287, 2406, 2405
2134, 2287, 2288, 2407, 2406
2135, 2288, 2289, 2408, 2407
2136, 2289, 2290, 2409, 2408
2137, 2290, 2291, 2410, 2409
2138, 2291, 2292, 2411, 2410
2139, 2292, 2293, 2412, 2411
2140, 2293, 2294, 2413, 2412
2141, 2294, 2295, 2414, 2413
2142, 2295, 2296, 2415, 2414
2143, 2296, 2297, 2416, 2415
2144, 2297, 2298, 2417, 2416
2145, 2298, 2299, 2418, 2417
2146, 2299, 2300, 2419, 2418
2147, 2300, 2301, 2420, 2419
2148, 2301, 2302, 2421, 2420
2149, 2302, 2303, 2422, 2421
2150, 2303, 2304, 2423, 2422
2151, 2304, 2305, 2424, 2423
2152, 2305, 2306, 2425, 2424
2153, 2306, 2307, 2426, 2425
2154, 2307, 2308, 2427, 2426
2155, 2308, 2309, 2428, 2427
2156, 2309, 2310, 2429, 2428
2157, 2310, 2311, 2430, 2429
2158, 2311, 2312, 2431, 2430
2159, 2312, 2313, 2432, 2431
2160, 2313,  401,  402, 2432
2161,  534, 2314, 2433,  533
2162, 2314, 2315, 2434, 2433
2163, 2315, 2316, 2435, 2434
2164, 2316, 2317, 2436, 2435
2165, 2317, 2318, 2437, 2436
2166, 2318, 2319, 2438, 2437
2167, 2319, 2320, 2439, 2438
2168, 2320, 2321, 2440, 2439
2169, 2321, 2322, 2441, 2440
2170, 2322, 2323, 2442, 2441
2171, 2323, 2324, 2443, 2442
2172, 2324, 2325, 2444, 2443
2173, 2325, 2326, 2445, 2444
2174, 2326, 2327, 2446, 2445
2175, 2327, 2328, 2447, 2446
2176, 2328, 2329, 2448, 2447
2177, 2329, 2330, 2449, 2448
2178, 2330, 2331, 2450, 2449
2179, 2331, 2332, 2451, 2450
2180, 2332, 2333, 2452, 2451
2181, 2333, 2334, 2453, 2452
2182, 2334, 2335, 2454, 2453
2183, 2335, 2336, 2455, 2454
2184, 2336, 2337, 2456, 2455
2185, 2337, 2338, 2457, 2456
2186, 2338, 2339, 2458, 2457
2187, 2339, 2340, 2459, 2458
2188, 2340, 2341, 2460, 2459
2189, 2341, 2342, 2461, 2460
2190, 2342, 2343, 2462, 2461
2191, 2343, 2344, 2463, 2462
2192, 2344, 2345, 2464, 2463
2193, 2345, 2346, 2465, 2464
2194, 2346, 2347, 2466, 2465
2195, 2347, 2348, 2467, 2466
2196, 2348, 2349, 2468, 2467
2197, 2349, 2350, 2469, 2468
2198, 2350, 2351, 2470, 2469
2199, 2351, 2352, 2471, 2470
2200, 2352, 2353, 2472, 2471
2201, 2353, 2354, 2473, 2472
2202, 2354, 2355, 2474, 2473
2203, 2355, 2356, 2475, 2474
2204, 2356, 2357, 2476, 2475
2205, 2357, 2358, 2477, 2476
2206, 2358, 2359, 2478, 2477
2207, 2359, 2360, 2479, 2478
2208, 2360, 2361, 2480, 2479
2209, 2361, 2362, 2481, 2480
2210, 2362, 2363, 2482, 2481
2211, 2363, 2364, 2483, 2482
2212, 2364, 2365, 2484, 2483
2213, 2365, 2366, 2485, 2484
2214, 2366, 2367, 2486, 2485
2215, 2367, 2368, 2487, 2486
2216, 2368, 2369, 2488, 2487
2217, 2369, 2370, 2489, 2488
2218, 2370, 2371, 2490, 2489
2219, 2371, 2372, 2491, 2490
2220, 2372, 2373, 2492, 2491
2221, 2373, 2374, 2493, 2492
2222, 2374, 2375, 2494, 2493
2223, 2375, 2376, 2495, 2494
2224, 2376, 2377, 2496, 2495
2225, 2377, 2378, 2497, 2496
2226, 2378, 2379, 2498, 2497
2227, 2379, 2380, 2499, 2498
2228, 2380, 2381, 2500, 2499
2229, 2381, 2382, 2501, 2500
2230, 2382, 2383, 2502, 2501
2231, 2383, 2384, 2503, 2502
2232, 2384, 2385, 2504, 2503
2233, 2385, 2386, 2505, 2504
2234, 2386, 2387, 2506, 2505
2235, 2387, 2388, 2507, 2506
2236, 2388, 2389, 2508, 2507
2237, 2389, 2390, 2509, 2508
2238, 2390, 2391, 2510, 2509
2239, 2391, 2392, 2511, 2510
2240, 2392, 2393, 2512, 2511
2241, 2393, 2394, 2513, 2512
2242, 2394, 2395, 2514, 2513
2243, 2395, 2396, 2515, 2514
2244, 2396, 2397, 2516, 2515
2245, 2397, 2398, 2517, 2516
2246, 2398, 2399, 2518, 2517
2247, 2399, 2400, 2519, 2518
2248, 2400, 2401, 2520, 2519
2249, 2401, 2402, 2521, 2520
2250, 2402, 2403, 2522, 2521
2251, 2403, 2404, 2523, 2522
2252, 2404, 2405, 2524, 2523
2253, 2405, 2406, 2525, 2524
2254, 2406, 2407, 2526, 2525
2255, 2407, 2408, 2527, 2526
2256, 2408, 2409, 2528, 2527
2257, 2409, 2410, 2529, 2528
2258, 2410, 2411, 2530, 2529
2259, 2411, 2412, 2531, 2530
2260, 2412, 2413, 2532, 2531
2261, 2413, 2414, 2533, 2532
2262, 2414, 2415, 2534, 2533
2263, 2415, 2416, 2535, 2534
2264, 2416, 2417, 2536, 2535
2265, 2417, 2418, 2537, 2536
2266, 2418, 2419, 2538, 2537
2267, 2419, 2420, 2539, 2538
2268, 2420, 2421, 2540, 2539
2269, 2421, 2422, 2541, 2540
2270, 2422, 2423, 2542, 2541
2271, 2423, 2424, 2543, 2542
2272, 2424, 2425, 2544, 2543
2273, 2425, 2426, 2545, 2544
2274, 2426, 2427, 2546, 2545
2275, 2427, 2428, 2547, 2546
2276, 2428, 2429, 2548, 2547
2277, 2429, 2430, 2549, 2548
2278, 2430, 2431, 2550, 2549
2279, 2431, 2432, 2551, 2550
2280, 2432,  402,  403, 2551
2281,  533, 2433, 2552,  532
2282, 2433, 2434, 2553, 2552
2283, 2434, 2435, 2554, 2553
2284, 2435, 2436, 2555, 2554
2285, 2436, 2437, 2556, 2555
2286, 2437, 2438, 2557, 2556
2287, 2438, 2439, 2558, 2557
2288, 2439, 2440, 2559, 2558
2289, 2440, 2441, 2560, 2559
2290, 2441, 2442, 2561, 2560
2291, 2442, 2443, 2562, 2561
2292, 2443, 2444, 2563, 2562
2293, 2444, 2445, 2564, 2563
2294, 2445, 2446, 2565, 2564
2295, 2446, 2447, 2566, 2565
2296, 2447, 2448, 2567, 2566
2297, 2448, 2449, 2568, 2567
2298, 2449, 2450, 2569, 2568
2299, 2450, 2451, 2570, 2569
2300, 2451, 2452, 2571, 2570
2301, 2452, 2453, 2572, 2571
2302, 2453, 2454, 2573, 2572
2303, 2454, 2455, 2574, 2573
2304, 2455, 2456, 2575, 2574
2305, 2456, 2457, 2576, 2575
2306, 2457, 2458, 2577, 2576
2307, 2458, 2459, 2578, 2577
2308, 2459, 2460, 2579, 2578
2309, 2460, 2461, 2580, 2579
2310, 2461, 2462, 2581, 2580
2311, 2462, 2463, 2582, 2581
2312, 2463, 2464, 2583, 2582
2313, 2464, 2465, 2584, 2583
2314, 2465, 2466, 2585, 2584
2315, 2466, 2467, 2586, 2585
2316, 2467, 2468, 2587, 2586
2317, 2468, 2469, 2588, 2587
2318, 2469, 2470, 2589, 2588
2319, 2470, 2471, 2590, 2589
2320, 2471, 2472, 2591, 2590
2321, 2472, 2473, 2592, 2591
2322, 2473, 2474, 2593, 2592
2323, 2474, 2475, 2594, 2593
2324, 2475, 2476, 2595, 2594
2325, 2476, 2477, 2596, 2595
2326, 2477, 2478, 2597, 2596
2327, 2478, 2479, 2598, 2597
2328, 2479, 2480, 2599, 2598
2329, 2480, 2481, 2600, 2599
2330, 2481, 2482, 2601, 2600
2331, 2482, 2483, 2602, 2601
2332, 2483, 2484, 2603, 2602
2333, 2484, 2485, 2604, 2603
2334, 2485, 2486, 2605, 2604
2335, 2486, 2487, 2606, 2605
2336, 2487, 2488, 2607, 2606
2337, 2488, 2489, 2608, 2607
2338, 2489, 2490, 2609, 2608
2339, 2490, 2491, 2610, 2609
2340, 2491, 2492, 2611, 2610
2341, 2492, 2493, 2612, 2611
2342, 2493, 2494, 2613, 2612
2343, 2494, 2495, 2614, 2613
2344, 2495, 2496, 2615, 2614
2345, 2496, 2497, 2616, 2615
2346, 2497, 2498, 2617, 2616
2347, 2498, 2499, 2618, 2617
2348, 2499, 2500, 2619, 2618
2349, 2500, 2501, 2620, 2619
2350, 2501, 2502, 2621, 2620
2351, 2502, 2503, 2622, 2621
2352, 2503, 2504, 2623, 2622
2353, 2504, 2505, 2624, 2623
2354, 2505, 2506, 2625, 2624
2355, 2506, 2507, 2626, 2625
2356, 2507, 2508, 2627, 2626
2357, 2508, 2509, 2628, 2627
2358, 2509, 2510, 2629, 2628
2359, 2510, 2511, 2630, 2629
2360, 2511, 2512, 2631, 2630
2361, 2512, 2513, 2632, 2631
2362, 2513, 2514, 2633, 2632
2363, 2514, 2515, 2634, 2633
2364, 2515, 2516, 2635, 2634
2365, 2516, 2517, 2636, 2635
2366, 2517, 2518, 2637, 2636
2367, 2518, 2519, 2638, 2637
2368, 2519, 2520, 2639, 2638
2369, 2520, 2521, 2640, 2639
2370, 2521, 2522, 2641, 2640
2371, 2522, 2523, 2642, 2641
2372, 2523, 2524, 2643, 2642
2373, 2524, 2525, 2644, 2643
2374, 2525, 2526, 2645, 2644
2375, 2526, 2527, 2646, 2645
2376, 2527, 2528, 2647, 2646
2377, 2528, 2529, 2648, 2647
2378, 2529, 2530, 2649, 2648
2379, 2530, 2531, 2650, 2649
2380, 2531, 2532, 2651, 2650
2381, 2532, 2533, 2652, 2651
2382, 2533, 2534, 2653, 2652
2383, 2534, 2535, 2654, 2653
2384, 2535, 2536, 2655, 2654
2385, 2536, 2537, 2656, 2655
2386, 2537, 2538, 2657, 2656
2387, 2538, 2539, 2658, 2657
2388, 2539, 2540, 2659, 2658
2389, 2540, 2541, 2660, 2659
2390, 2541, 2542, 2661, 2660
2391, 2542, 2543, 2662, 2661
2392, 2543, 2544, 2663, 2662
2393, 2544, 2545, 2664, 2663
2394, 2545, 2546, 2665, 2664
2395, 2546, 2547, 2666, 2665
2396, 2547, 2548, 2667, 2666
2397, 2548, 2549, 2668, 2667
2398, 2549, 2550, 2669, 2668
2399, 2550, 2551, 2670, 2669
2400, 2551,  403,  404, 2670
2401,  532, 2552, 2671,  531
2402, 2552, 2553, 2672, 2671
2403, 2553, 2554, 2673, 2672
2404, 2554, 2555, 2674, 2673
2405, 2555, 2556, 2675, 2674
2406, 2556, 2557, 2676, 2675
2407, 2557, 2558, 2677, 2676
2408, 2558, 2559, 2678, 2677
2409, 2559, 2560, 2679, 2678
2410, 2560, 2561, 2680, 2679
2411, 2561, 2562, 2681, 2680
2412, 2562, 2563, 2682, 2681
2413, 2563, 2564, 2683, 2682
2414, 2564, 2565, 2684, 2683
2415, 2565, 2566, 2685, 2684
2416, 2566, 2567, 2686, 2685
2417, 2567, 2568, 2687, 2686
2418, 2568, 2569, 2688, 2687
2419, 2569, 2570, 2689, 2688
2420, 2570, 2571, 2690, 2689
2421, 2571, 2572, 2691, 2690
2422, 2572, 2573, 2692, 2691
2423, 2573, 2574, 2693, 2692
2424, 2574, 2575, 2694, 2693
2425, 2575, 2576, 2695, 2694
2426, 2576, 2577, 2696, 2695
2427, 2577, 2578, 2697, 2696
2428, 2578, 2579, 2698, 2697
2429, 2579, 2580, 2699, 2698
2430, 2580, 2581, 2700, 2699
2431, 2581, 2582, 2701, 2700
2432, 2582, 2583, 2702, 2701
2433, 2583, 2584, 2703, 2702
2434, 2584, 2585, 2704, 2703
2435, 2585, 2586, 2705, 2704
2436, 2586, 2587, 2706, 2705
2437, 2587, 2588, 2707, 2706
2438, 2588, 2589, 2708, 2707
2439, 2589, 2590, 2709, 2708
2440, 2590, 2591, 2710, 2709
2441, 2591, 2592, 2711, 2710
2442, 2592, 2593, 2712, 2711
2443, 2593, 2594, 2713, 2712
2444, 2594, 2595, 2714, 2713
2445, 2595, 2596, 2715, 2714
2446, 2596, 2597, 2716, 2715
2447, 2597, 2598, 2717, 2716
2448, 2598, 2599, 2718, 2717
2449, 2599, 2600, 2719, 2718
2450, 2600, 2601, 2720, 2719
2451, 2601, 2602, 2721, 2720
2452, 2602, 2603, 2722, 2721
2453, 2603, 2604, 2723, 2722
2454, 2604, 2605, 2724, 2723
2455, 2605, 2606, 2725, 2724
2456, 2606, 2607, 2726, 2725
2457, 2607, 2608, 2727, 2726
2458, 2608, 2609, 2728, 2727
2459, 2609, 2610, 2729, 2728
2460, 2610, 2611, 2730, 2729
2461, 2611, 2612, 2731, 2730
2462, 2612, 2613, 2732, 2731
2463, 2613, 2614, 2733, 2732
2464, 2614, 2615, 2734, 2733
2465, 2615, 2616, 2735, 2734
2466, 2616, 2617, 2736, 2735
2467, 2617, 2618, 2737, 2736
2468, 2618, 2619, 2738, 2737
2469, 2619, 2620, 2739, 2738
2470, 2620, 2621, 2740, 2739
2471, 2621, 2622, 2741, 2740
2472, 2622, 2623, 2742, 2741
2473, 2623, 2624, 2743, 2742
2474, 2624, 2625, 2744, 2743
2475, 2625, 2626, 2745, 2744
2476, 2626, 2627, 2746, 2745
2477, 2627, 2628, 2747, 2746
2478, 2628, 2629, 2748, 2747
2479, 2629, 2630, 2749, 2748
2480, 2630, 2631, 2750, 2749
2481, 2631, 2632, 2751, 2750
2482, 2632, 2633, 2752, 2751
2483, 2633, 2634, 2753, 2752
2484, 2634, 2635, 2754, 2753
2485, 2635, 2636, 2755, 2754
2486, 2636, 2637, 2756, 2755
2487, 2637, 2638, 2757, 2756
2488, 2638, 2639, 2758, 2757
2489, 2639, 2640, 2759, 2758
2490, 2640, 2641, 2760, 2759
2491, 2641, 2642, 2761, 2760
2492, 2642, 2643, 2762, 2761
2493, 2643, 2644, 2763, 2762
2494, 2644, 2645, 2764, 2763
2495, 2645, 2646, 2765, 2764
2496, 2646, 2647, 2766, 2765
2497, 2647, 2648, 2767, 2766
2498, 2648, 2649, 2768, 2767
2499, 2649, 2650, 2769, 2768
2500, 2650, 2651, 2770, 2769
2501, 2651, 2652, 2771, 2770
2502, 2652, 2653, 2772, 2771
2503, 2653, 2654, 2773, 2772
2504, 2654, 2655, 2774, 2773
2505, 2655, 2656, 2775, 2774
2506, 2656, 2657, 2776, 2775
2507, 2657, 2658, 2777, 2776
2508, 2658, 2659, 2778, 2777
2509, 2659, 2660, 2779, 2778
2510, 2660, 2661, 2780, 2779
2511, 2661, 2662, 2781, 2780
2512, 2662, 2663, 2782, 2781
2513, 2663, 2664, 2783, 2782
2514, 2664, 2665, 2784, 2783
2515, 2665, 2666, 2785, 2784
2516, 2666, 2667, 2786, 2785
2517, 2667, 2668, 2787, 2786
2518, 2668, 2669, 2788, 2787
2519, 2669, 2670, 2789, 2788
2520, 2670,  404,  405, 2789
2521,  531, 2671, 2790,  530
2522, 2671, 2672, 2791, 2790
2523, 2672, 2673, 2792, 2791
2524, 2673, 2674, 2793, 2792
2525, 2674, 2675, 2794, 2793
2526, 2675, 2676, 2795, 2794
2527, 2676, 2677, 2796, 2795
2528, 2677, 2678, 2797, 2796
2529, 2678, 2679, 2798, 2797
2530, 2679, 2680, 2799, 2798
2531, 2680, 2681, 2800, 2799
2532, 2681, 2682, 2801, 2800
2533, 2682, 2683, 2802, 2801
2534, 2683, 2684, 2803, 2802
2535, 2684, 2685, 2804, 2803
2536, 2685, 2686, 2805, 2804
2537, 2686, 2687, 2806, 2805
2538, 2687, 2688, 2807, 2806
2539, 2688, 2689, 2808, 2807
2540, 2689, 2690, 2809, 2808
2541, 2690, 2691, 2810, 2809
2542, 2691, 2692, 2811, 2810
2543, 2692, 2693, 2812, 2811
2544, 2693, 2694, 2813, 2812
2545, 2694, 2695, 2814, 2813
2546, 2695, 2696, 2815, 2814
2547, 2696, 2697, 2816, 2815
2548, 2697, 2698, 2817, 2816
2549, 2698, 2699, 2818, 2817
2550, 2699, 2700, 2819, 2818
2551, 2700, 2701, 2820, 2819
2552, 2701, 2702, 2821, 2820
2553, 2702, 2703, 2822, 2821
2554, 2703, 2704, 2823, 2822
2555, 2704, 2705, 2824, 2823
2556, 2705, 2706, 2825, 2824
2557, 2706, 2707, 2826, 2825
2558, 2707, 2708, 2827, 2826
2559, 2708, 2709, 2828, 2827
2560, 2709, 2710, 2829, 2828
2561, 2710, 2711, 2830, 2829
2562, 2711, 2712, 2831, 2830
2563, 2712, 2713, 2832, 2831
2564, 2713, 2714, 2833, 2832
2565, 2714, 2715, 2834, 2833
2566, 2715, 2716, 2835, 2834
2567, 2716, 2717, 2836, 2835
2568, 2717, 2718, 2837, 2836
2569, 2718, 2719, 2838, 2837
2570, 2719, 2720, 2839, 2838
2571, 2720, 2721, 2840, 2839
2572, 2721, 2722, 2841, 2840
2573, 2722, 2723, 2842, 2841
2574, 2723, 2724, 2843, 2842
2575, 2724, 2725, 2844, 2843
2576, 2725, 2726, 2845, 2844
2577, 2726, 2727, 2846, 2845
2578, 2727, 2728, 2847, 2846
2579, 2728, 2729, 2848, 2847
2580, 2729, 2730, 2849, 2848
2581, 2730, 2731, 2850, 2849
2582, 2731, 2732, 2851, 2850
2583, 2732, 2733, 2852, 2851
2584, 2733, 2734, 2853, 2852
2585, 2734, 2735, 2854, 2853
2586, 2735, 2736, 2855, 2854
2587, 2736, 2737, 2856, 2855
2588, 2737, 2738, 2857, 2856
2589, 2738, 2739, 2858, 2857
2590, 2739, 2740, 2859, 2858
2591, 2740, 2741, 2860, 2859
2592, 2741, 2742, 2861, 2860
2593, 2742, 2743, 2862, 2861
2594, 2743, 2744, 2863, 2862
2595, 2744, 2745, 2864, 2863
2596, 2745, 2746, 2865, 2864
2597, 2746, 2747, 2866, 2865
2598, 2747, 2748, 2867, 2866
2599, 2748, 2749, 2868, 2867
2600, 2749, 2750, 2869, 2868
2601, 2750, 2751, 2870, 2869
2602, 2751, 2752, 2871, 2870
2603, 2752, 2753, 2872, 2871
2604, 2753, 2754, 2873, 2872
2605, 2754, 2755, 2874, 2873
2606, 2755, 2756, 2875, 2874
2607, 2756, 2757, 2876, 2875
2608, 2757, 2758, 2877, 2876
2609, 2758, 2759, 2878, 2877
2610, 2759, 2760, 2879, 2878
2611, 2760, 2761, 2880, 2879
2612, 2761, 2762, 2881, 2880
2613, 2762, 2763, 2882, 2881
2614, 2763, 2764, 2883, 2882
2615, 2764, 2765, 2884, 2883
2616, 2765, 2766, 2885, 2884
2617, 2766, 2767, 2886, 2885
2618, 2767, 2768, 2887, 2886
2619, 2768, 2769, 2888, 2887
2620, 2769, 2770, 2889, 2888
2621, 2770, 2771, 2890, 2889
2622, 2771, 2772, 2891, 2890
2623, 2772, 2773, 2892, 2891
2624, 2773, 2774, 2893, 2892
2625, 2774, 2775, 2894, 2893
2626, 2775, 2776, 2895, 2894
2627, 2776, 2777, 2896, 2895
2628, 2777, 2778, 2897, 2896
2629, 2778, 2779, 2898, 2897
2630, 2779, 2780, 2899, 2898
2631, 2780, 2781, 2900, 2899
2632, 2781, 2782, 2901, 2900
2633, 2782, 2783, 2902, 2901
2634, 2783, 2784, 2903, 2902
2635, 2784, 2785, 2904, 2903
2636, 2785, 2786, 2905, 2904
2637, 2786, 2787, 2906, 2905
2638, 2787, 2788, 2907, 2906
2639, 2788, 2789, 2908, 2907
2640, 2789,  405,  406, 2908
2641,  530, 2790, 2909,  529
2642, 2790, 2791, 2910, 2909
2643, 2791, 2792, 2911, 2910
2644, 2792, 2793, 2912, 2911
2645, 2793, 2794, 2913, 2912
2646, 2794, 2795, 2914, 2913
2647, 2795, 2796, 2915, 2914
2648, 2796, 2797, 2916, 2915
2649, 2797, 2798, 2917, 2916
2650, 2798, 2799, 2918, 2917
2651, 2799, 2800, 2919, 2918
2652, 2800, 2801, 2920, 2919
2653, 2801, 2802, 2921, 2920
2654, 2802, 2803, 2922, 2921
2655, 2803, 2804, 2923, 2922
2656, 2804, 2805, 2924, 2923
2657, 2805, 2806, 2925, 2924
2658, 2806, 2807, 2926, 2925
2659, 2807, 2808, 2927, 2926
2660, 2808, 2809, 2928, 2927
2661, 2809, 2810, 2929, 2928
2662, 2810, 2811, 2930, 2929
2663, 2811, 2812, 2931, 2930
2664, 2812, 2813, 2932, 2931
2665, 2813, 2814, 2933, 2932
2666, 2814, 2815, 2934, 2933
2667, 2815, 2816, 2935, 2934
2668, 2816, 2817, 2936, 2935
2669, 2817, 2818, 2937, 2936
2670, 2818, 2819, 2938, 2937
2671, 2819, 2820, 2939, 2938
2672, 2820, 2821, 2940, 2939
2673, 2821, 2822, 2941, 2940
2674, 2822, 2823, 2942, 2941
2675, 2823, 2824, 2943, 2942
2676, 2824, 2825, 2944, 2943
2677, 2825, 2826, 2945, 2944
2678, 2826, 2827, 2946, 2945
2679, 2827, 2828, 2947, 2946
2680, 2828, 2829, 2948, 2947
2681, 2829, 2830, 2949, 2948
2682, 2830, 2831, 2950, 2949
2683, 2831, 2832, 2951, 2950
2684, 2832, 2833, 2952, 2951
2685, 2833, 2834, 2953, 2952
2686, 2834, 2835, 2954, 2953
2687, 2835, 2836, 2955, 2954
2688, 2836, 2837, 2956, 2955
2689, 2837, 2838, 2957, 2956
2690, 2838, 2839, 2958, 2957
2691, 2839, 2840, 2959, 2958
2692, 2840, 2841, 2960, 2959
2693, 2841, 2842, 2961, 2960
2694, 2842, 2843, 2962, 2961
2695, 2843, 2844, 2963, 2962
2696, 2844, 2845, 2964, 2963
2697, 2845, 2846, 2965, 2964
2698, 2846, 2847, 2966, 2965
2699, 2847, 2848, 2967, 2966
2700, 2848, 2849, 2968, 2967
2701, 2849, 2850, 2969, 2968
2702, 2850, 2851, 2970, 2969
2703, 2851, 2852, 2971, 2970
2704, 2852, 2853, 2972, 2971
2705, 2853, 2854, 2973, 2972
2706, 2854, 2855, 2974, 2973
2707, 2855, 2856, 2975, 2974
2708, 2856, 2857, 2976, 2975
2709, 2857, 2858, 2977, 2976
2710, 2858, 2859, 2978, 2977
2711, 2859, 2860, 2979, 2978
2712, 2860, 2861, 2980, 2979
2713, 2861, 2862, 2981, 2980
2714, 2862, 2863, 2982, 2981
2715, 2863, 2864, 2983, 2982
2716, 2864, 2865, 2984, 2983
2717, 2865, 2866, 2985, 2984
2718, 2866, 2867, 2986, 2985
2719, 2867, 2868, 2987, 2986
2720, 2868, 2869, 2988, 2987
2721, 2869, 2870, 2989, 2988
2722, 2870, 2871, 2990, 2989
2723, 2871, 2872, 2991, 2990
2724, 2872, 2873, 2992, 2991
2725, 2873, 2874, 2993, 2992
2726, 2874, 2875, 2994, 2993
2727, 2875, 2876, 2995, 2994
2728, 2876, 2877, 2996, 2995
2729, 2877, 2878, 2997, 2996
2730, 2878, 2879, 2998, 2997
2731, 2879, 2880, 2999, 2998
2732, 2880, 2881, 3000, 2999
2733, 2881, 2882, 3001, 3000
2734, 2882, 2883, 3002, 3001
2735, 2883, 2884, 3003, 3002
2736, 2884, 2885, 3004, 3003
2737, 2885, 2886, 3005, 3004
2738, 2886, 2887, 3006, 3005
2739, 2887, 2888, 3007, 3006
2740, 2888, 2889, 3008, 3007
2741, 2889, 2890, 3009, 3008
2742, 2890, 2891, 3010, 3009
2743, 2891, 2892, 3011, 3010
2744, 2892, 2893, 3012, 3011
2745, 2893, 2894, 3013, 3012
2746, 2894, 2895, 3014, 3013
2747, 2895, 2896, 3015, 3014
2748, 2896, 2897, 3016, 3015
2749, 2897, 2898, 3017, 3016
2750, 2898, 2899, 3018, 3017
2751, 2899, 2900, 3019, 3018
2752, 2900, 2901, 3020, 3019
2753, 2901, 2902, 3021, 3020
2754, 2902, 2903, 3022, 3021
2755, 2903, 2904, 3023, 3022
2756, 2904, 2905, 3024, 3023
2757, 2905, 2906, 3025, 3024
2758, 2906, 2907, 3026, 3025
2759, 2907, 2908, 3027, 3026
2760, 2908,  406,  407, 3027
2761,  529, 2909, 3028,  528
2762, 2909, 2910, 3029, 3028
2763, 2910, 2911, 3030, 3029
2764, 2911, 2912, 3031, 3030
2765, 2912, 2913, 3032, 3031
2766, 2913, 2914, 3033, 3032
2767, 2914, 2915, 3034, 3033
2768, 2915, 2916, 3035, 3034
2769, 2916, 2917, 3036, 3035
2770, 2917, 2918, 3037, 3036
2771, 2918, 2919, 3038, 3037
2772, 2919, 2920, 3039, 3038
2773, 2920, 2921, 3040, 3039
2774, 2921, 2922, 3041, 3040
2775, 2922, 2923, 3042, 3041
2776, 2923, 2924, 3043, 3042
2777, 2924, 2925, 3044, 3043
2778, 2925, 2926, 3045, 3044
2779, 2926, 2927, 3046, 3045
2780, 2927, 2928, 3047, 3046
2781, 2928, 2929, 3048, 3047
2782, 2929, 2930, 3049, 3048
2783, 2930, 2931, 3050, 3049
2784, 2931, 2932, 3051, 3050
2785, 2932, 2933, 3052, 3051
2786, 2933, 2934, 3053, 3052
2787, 2934, 2935, 3054, 3053
2788, 2935, 2936, 3055, 3054
2789, 2936, 2937, 3056, 3055
2790, 2937, 2938, 3057, 3056
2791, 2938, 2939, 3058, 3057
2792, 2939, 2940, 3059, 3058
2793, 2940, 2941, 3060, 3059
2794, 2941, 2942, 3061, 3060
2795, 2942, 2943, 3062, 3061
2796, 2943, 2944, 3063, 3062
2797, 2944, 2945, 3064, 3063
2798, 2945, 2946, 3065, 3064
2799, 2946, 2947, 3066, 3065
2800, 2947, 2948, 3067, 3066
2801, 2948, 2949, 3068, 3067
2802, 2949, 2950, 3069, 3068
2803, 2950, 2951, 3070, 3069
2804, 2951, 2952, 3071, 3070
2805, 2952, 2953, 3072, 3071
2806, 2953, 2954, 3073, 3072
2807, 2954, 2955, 3074, 3073
2808, 2955, 2956, 3075, 3074
2809, 2956, 2957, 3076, 3075
2810, 2957, 2958, 3077, 3076
2811, 2958, 2959, 3078, 3077
2812, 2959, 2960, 3079, 3078
2813, 2960, 2961, 3080, 3079
2814, 2961, 2962, 3081, 3080
2815, 2962, 2963, 3082, 3081
2816, 2963, 2964, 3083, 3082
2817, 2964, 2965, 3084, 3083
2818, 2965, 2966, 3085, 3084
2819, 2966, 2967, 3086, 3085
2820, 2967, 2968, 3087, 3086
2821, 2968, 2969, 3088, 3087
2822, 2969, 2970, 3089, 3088
2823, 2970, 2971, 3090, 3089
2824, 2971, 2972, 3091, 3090
2825, 2972, 2973, 3092, 3091
2826, 2973, 2974, 3093, 3092
2827, 2974, 2975, 3094, 3093
2828, 2975, 2976, 3095, 3094
2829, 2976, 2977, 3096, 3095
2830, 2977, 2978, 3097, 3096
2831, 2978, 2979, 3098, 3097
2832, 2979, 2980, 3099, 3098
2833, 2980, 2981, 3100, 3099
2834, 2981, 2982, 3101, 3100
2835, 2982, 2983, 3102, 3101
2836, 2983, 2984, 3103, 3102
2837, 2984, 2985, 3104, 3103
2838, 2985, 2986, 3105, 3104
2839, 2986, 2987, 3106, 3105
2840, 2987, 2988, 3107, 3106
2841, 2988, 2989, 3108, 3107
2842, 2989, 2990, 3109, 3108
2843, 2990, 2991, 3110, 3109
2844, 2991, 2992, 3111, 3110
2845, 2992, 2993, 3112, 3111
2846, 2993, 2994, 3113, 3112
2847, 2994, 2995, 3114, 3113
2848, 2995, 2996, 3115, 3114
2849, 2996, 2997, 3116, 3115
2850, 2997, 2998, 3117, 3116
2851, 2998, 2999, 3118, 3117
2852, 2999, 3000, 3119, 3118
2853, 3000, 3001, 3120, 3119
2854, 3001, 3002, 3121, 3120
2855, 3002, 3003, 3122, 3121
2856, 3003, 3004, 3123, 3122
2857, 3004, 3005, 3124, 3123
2858, 3005, 3006, 3125, 3124
2859, 3006, 3007, 3126, 3125
2860, 3007, 3008, 3127, 3126
2861, 3008, 3009, 3128, 3127
2862, 3009, 3010, 3129, 3128
2863, 3010, 3011, 3130, 3129
2864, 3011, 3012, 3131, 3130
2865, 3012, 3013, 3132, 3131
2866, 3013, 3014, 3133, 3132
2867, 3014, 3015, 3134, 3133
2868, 3015, 3016, 3135, 3134
2869, 3016, 3017, 3136, 3135
2870, 3017, 3018, 3137, 3136
2871, 3018, 3019, 3138, 3137
2872, 3019, 3020, 3139, 3138
2873, 3020, 3021, 3140, 3139
2874, 3021, 3022, 3141, 3140
2875, 3022, 3023, 3142, 3141
2876, 3023, 3024, 3143, 3142
2877, 3024, 3025, 3144, 3143
2878, 3025, 3026, 3145, 3144
2879, 3026, 3027, 3146, 3145
2880, 3027,  407,  408, 3146
2881,  528, 3028,  527,   12
2882, 3028, 3029,  526,  527
2883, 3029, 3030,  525,  526
2884, 3030, 3031,  524,  525
2885, 3031, 3032,  523,  524
2886, 3032, 3033,  522,  523
2887, 3033, 3034,  521,  522
2888, 3034, 3035,  520,  521
2889, 3035, 3036,  519,  520
2890, 3036, 3037,  518,  519
2891, 3037, 3038,  517,  518
2892, 3038, 3039,  516,  517
2893, 3039, 3040,  515,  516
2894, 3040, 3041,  514,  515
2895, 3041, 3042,  513,  514
2896, 3042, 3043,  512,  513
2897, 3043, 3044,  511,  512
2898, 3044, 3045,  510,  511
2899, 3045, 3046,  509,  510
2900, 3046, 3047,  508,  509
2901, 3047, 3048,  507,  508
2902, 3048, 3049,  506,  507
2903, 3049, 3050,  505,  506
2904, 3050, 3051,  504,  505
2905, 3051, 3052,  503,  504
2906, 3052, 3053,  502,  503
2907, 3053, 3054,  501,  502
2908, 3054, 3055,  500,  501
2909, 3055, 3056,  499,  500
2910, 3056, 3057,  498,  499
2911, 3057, 3058,  497,  498
2912, 3058, 3059,  496,  497
2913, 3059, 3060,  495,  496
2914, 3060, 3061,  494,  495
2915, 3061, 3062,  493,  494
2916, 3062, 3063,  492,  493
2917, 3063, 3064,  491,  492
2918, 3064, 3065,  490,  491
2919, 3065, 3066,  489,  490
2920, 3066, 3067,  488,  489
2921, 3067, 3068,  487,  488
2922, 3068, 3069,  486,  487
2923, 3069, 3070,  485,  486
2924, 3070, 3071,  484,  485
2925, 3071, 3072,  483,  484
2926, 3072, 3073,  482,  483
2927, 3073, 3074,  481,  482
2928, 3074, 3075,  480,  481
2929, 3075, 3076,  479,  480
2930, 3076, 3077,  478,  479
2931, 3077, 3078,  477,  478
2932, 3078, 3079,  476,  477
2933, 3079, 3080,  475,  476
2934, 3080, 3081,  474,  475
2935, 3081, 3082,  473,  474
2936, 3082, 3083,  472,  473
2937, 3083, 3084,  471,  472
2938, 3084, 3085,  470,  471
2939, 3085, 3086,  469,  470
2940, 3086, 3087,  468,  469
2941, 3087, 3088,  467,  468
2942, 3088, 3089,  466,  467
2943, 3089, 3090,  465,  466
2944, 3090, 3091,  464,  465
2945, 3091, 3092,  463,  464
2946, 3092, 3093,  462,  463
2947, 3093, 3094,  461,  462
2948, 3094, 3095,  460,  461
2949, 3095, 3096,  459,  460
2950, 3096, 3097,  458,  459
2951, 3097, 3098,  457,  458
2952, 3098, 3099,  456,  457
2953, 3099, 3100,  455,  456
2954, 3100, 3101,  454,  455
2955, 3101, 3102,  453,  454
2956, 3102, 3103,  452,  453
2957, 3103, 3104,  451,  452
2958, 3104, 3105,  450,  451
2959, 3105, 3106,  449,  450
2960, 3106, 3107,  448,  449
2961, 3107, 3108,  447,  448
2962, 3108, 3109,  446,  447
2963, 3109, 3110,  445,  446
2964, 3110, 3111,  444,  445
2965, 3111, 3112,  443,  444
2966, 3112, 3113,  442,  443
2967, 3113, 3114,  441,  442
2968, 3114, 3115,  440,  441
2969, 3115, 3116,  439,  440
2970, 3116, 3117,  438,  439
2971, 3117, 3118,  437,  438
2972, 3118, 3119,  436,  437
2973, 3119, 3120,  435,  436
2974, 3120, 3121,  434,  435
2975, 3121, 3122,  433,  434
2976, 3122, 3123,  432,  433
2977, 3123, 3124,  431,  432
2978, 3124, 3125,  430,  431
2979, 3125, 3126,  429,  430
2980, 3126, 3127,  428,  429
2981, 3127, 3128,  427,  428
2982, 3128, 3129,  426,  427
2983, 3129, 3130,  425,  426
2984, 3130, 3131,  424,  425
2985, 3131, 3132,  423,  424
2986, 3132, 3133,  422,  423
2987, 3133, 3134,  421,  422
2988, 3134, 3135,  420,  421
2989, 3135, 3136,  419,  420
2990, 3136, 3137,  418,  419
2991, 3137, 3138,  417,  418
2992, 3138, 3139,  416,  417
2993, 3139, 3140,  415,  416
2994, 3140, 3141,  414,  415
2995, 3141, 3142,  413,  414
2996, 3142, 3143,  412,  413
2997, 3143, 3144,  411,  412
2998, 3144, 3145,  410,  411
2999, 3145, 3146,  409,  410
3000, 3146,  408,   11,  409
*Nset, nset=_PickedSet4, internal
    2,    3,    5,    8,   11,   12,   17,   18,   19,   20,   21,   22,   23,   24,   25,   26
   27,   28,   29,   30,   31,   32,   33,   34,   35,   36,   37,   38,   39,   40,   41,   42
   43,   44,   45,   46,   47,   48,   49,   50,   51,   52,   53,   54,   55,  146,  147,  148
  149,  150,  151,  152,  153,  154,  155,  156,  157,  158,  159,  160,  161,  162,  163,  164
  165,  166,  167,  168,  169,  170,  171,  172,  173,  174,  175,  176,  177,  178,  179,  180
  181,  182,  183,  184,  361,  362,  363,  364,  365,  366,  367,  368,  369,  370,  371,  372
  373,  374,  375,  376,  377,  378,  379,  380,  381,  382,  383,  384,  385,  386,  387,  388
  389,  390,  391,  392,  393,  394,  395,  396,  397,  398,  399,  400,  401,  402,  403,  404
  405,  406,  407,  408,  409,  410,  411,  412,  413,  414,  415,  416,  417,  418,  419,  420
  421,  422,  423,  424,  425,  426,  427,  428,  429,  430,  431,  432,  433,  434,  435,  436
  437,  438,  439,  440,  441,  442,  443,  444,  445,  446,  447,  448,  449,  450,  451,  452
  453,  454,  455,  456,  457,  458,  459,  460,  461,  462,  463,  464,  465,  466,  467,  468
  469,  470,  471,  472,  473,  474,  475,  476,  477,  478,  479,  480,  481,  482,  483,  484
  485,  486,  487,  488,  489,  490,  491,  492,  493,  494,  495,  496,  497,  498,  499,  500
  501,  502,  503,  504,  505,  506,  507,  508,  509,  510,  511,  512,  513,  514,  515,  516
  517,  518,  519,  520,  521,  522,  523,  524,  525,  526,  527,  528,  529,  530,  531,  532
  533,  534,  535,  536, 2076, 2077, 2078, 2079, 2080, 2081, 2082, 2083, 2084, 2085, 2086, 2087
 2088, 2089, 2090, 2091, 2092, 2093, 2094, 2095, 2096, 2097, 2098, 2099, 2100, 2101, 2102, 2103
 2104, 2105, 2106, 2107, 2108, 2109, 2110, 2111, 2112, 2113, 2114, 2115, 2116, 2117, 2118, 2119
 2120, 2121, 2122, 2123, 2124, 2125, 2126, 2127, 2128, 2129, 2130, 2131, 2132, 2133, 2134, 2135
 2136, 2137, 2138, 2139, 2140, 2141, 2142, 2143, 2144, 2145, 2146, 2147, 2148, 2149, 2150, 2151
 2152, 2153, 2154, 2155, 2156, 2157, 2158, 2159, 2160, 2161, 2162, 2163, 2164, 2165, 2166, 2167
 2168, 2169, 2170, 2171, 2172, 2173, 2174, 2175, 2176, 2177, 2178, 2179, 2180, 2181, 2182, 2183
 2184, 2185, 2186, 2187, 2188, 2189, 2190, 2191, 2192, 2193, 2194, 2195, 2196, 2197, 2198, 2199
 2200, 2201, 2202, 2203, 2204, 2205, 2206, 2207, 2208, 2209, 2210, 2211, 2212, 2213, 2214, 2215
 2216, 2217, 2218, 2219, 2220, 2221, 2222, 2223, 2224, 2225, 2226, 2227, 2228, 2229, 2230, 2231
 2232, 2233, 2234, 2235, 2236, 2237, 2238, 2239, 2240, 2241, 2242, 2243, 2244, 2245, 2246, 2247
 2248, 2249, 2250, 2251, 2252, 2253, 2254, 2255, 2256, 2257, 2258, 2259, 2260, 2261, 2262, 2263
 2264, 2265, 2266, 2267, 2268, 2269, 2270, 2271, 2272, 2273, 2274, 2275, 2276, 2277, 2278, 2279
 2280, 2281, 2282, 2283, 2284, 2285, 2286, 2287, 2288, 2289, 2290, 2291, 2292, 2293, 2294, 2295
 2296, 2297, 2298, 2299, 2300, 2301, 2302, 2303, 2304, 2305, 2306, 2307, 2308, 2309, 2310, 2311
 2312, 2313, 2314, 2315, 2316, 2317, 2318, 2319, 2320, 2321, 2322, 2323, 2324, 2325, 2326, 2327
 2328, 2329, 2330, 2331, 2332, 2333, 2334, 2335, 2336, 2337, 2338, 2339, 2340, 2341, 2342, 2343
 2344, 2345, 2346, 2347, 2348, 2349, 2350, 2351, 2352, 2353, 2354, 2355, 2356, 2357, 2358, 2359
 2360, 2361, 2362, 2363, 2364, 2365, 2366, 2367, 2368, 2369, 2370, 2371, 2372, 2373, 2374, 2375
 2376, 2377, 2378, 2379, 2380, 2381, 2382, 2383, 2384, 2385, 2386, 2387, 2388, 2389, 2390, 2391
 2392, 2393, 2394, 2395, 2396, 2397, 2398, 2399, 2400, 2401, 2402, 2403, 2404, 2405, 2406, 2407
 2408, 2409, 2410, 2411, 2412, 2413, 2414, 2415, 2416, 2417, 2418, 2419, 2420, 2421, 2422, 2423
 2424, 2425, 2426, 2427, 2428, 2429, 2430, 2431, 2432, 2433, 2434, 2435, 2436, 2437, 2438, 2439
 2440, 2441, 2442, 2443, 2444, 2445, 2446, 2447, 2448, 2449, 2450, 2451, 2452, 2453, 2454, 2455
 2456, 2457, 2458, 2459, 2460, 2461, 2462, 2463, 2464, 2465, 2466, 2467, 2468, 2469, 2470, 2471
 2472, 2473, 2474, 2475, 2476, 2477, 2478, 2479, 2480, 2481, 2482, 2483, 2484, 2485, 2486, 2487
 2488, 2489, 2490, 2491, 2492, 2493, 2494, 2495, 2496, 2497, 2498, 2499, 2500, 2501, 2502, 2503
 2504, 2505, 2506, 2507, 2508, 2509, 2510, 2511, 2512, 2513, 2514, 2515, 2516, 2517, 2518, 2519
 2520, 2521, 2522, 2523, 2524, 2525, 2526, 2527, 2528, 2529, 2530, 2531, 2532, 2533, 2534, 2535
 2536, 2537, 2538, 2539, 2540, 2541, 2542, 2543, 2544, 2545, 2546, 2547, 2548, 2549, 2550, 2551
 2552, 2553, 2554, 2555, 2556, 2557, 2558, 2559, 2560, 2561, 2562, 2563, 2564, 2565, 2566, 2567
 2568, 2569, 2570, 2571, 2572, 2573, 2574, 2575, 2576, 2577, 2578, 2579, 2580, 2581, 2582, 2583
 2584, 2585, 2586, 2587, 2588, 2589, 2590, 2591, 2592, 2593, 2594, 2595, 2596, 2597, 2598, 2599
 2600, 2601, 2602, 2603, 2604, 2605, 2606, 2607, 2608, 2609, 2610, 2611, 2612, 2613, 2614, 2615
 2616, 2617, 2618, 2619, 2620, 2621, 2622, 2623, 2624, 2625, 2626, 2627, 2628, 2629, 2630, 2631
 2632, 2633, 2634, 2635, 2636, 2637, 2638, 2639, 2640, 2641, 2642, 2643, 2644, 2645, 2646, 2647
 2648, 2649, 2650, 2651, 2652, 2653, 2654, 2655, 2656, 2657, 2658, 2659, 2660, 2661, 2662, 2663
 2664, 2665, 2666, 2667, 2668, 2669, 2670, 2671, 2672, 2673, 2674, 2675, 2676, 2677, 2678, 2679
 2680, 2681, 2682, 2683, 2684, 2685, 2686, 2687, 2688, 2689, 2690, 2691, 2692, 2693, 2694, 2695
 2696, 2697, 2698, 2699, 2700, 2701, 2702, 2703, 2704, 2705, 2706, 2707, 2708, 2709, 2710, 2711
 2712, 2713, 2714, 2715, 2716, 2717, 2718, 2719, 2720, 2721, 2722, 2723, 2724, 2725, 2726, 2727
 2728, 2729, 2730, 2731, 2732, 2733, 2734, 2735, 2736, 2737, 2738, 2739, 2740, 2741, 2742, 2743
 2744, 2745, 2746, 2747, 2748, 2749, 2750, 2751, 2752, 2753, 2754, 2755, 2756, 2757, 2758, 2759
 2760, 2761, 2762, 2763, 2764, 2765, 2766, 2767, 2768, 2769, 2770, 2771, 2772, 2773, 2774, 2775
 2776, 2777, 2778, 2779, 2780, 2781, 2782, 2783, 2784, 2785, 2786, 2787, 2788, 2789, 2790, 2791
 2792, 2793, 2794, 2795, 2796, 2797, 2798, 2799, 2800, 2801, 2802, 2803, 2804, 2805, 2806, 2807
 2808, 2809, 2810, 2811, 2812, 2813, 2814, 2815, 2816, 2817, 2818, 2819, 2820, 2821, 2822, 2823
 2824, 2825, 2826, 2827, 2828, 2829, 2830, 2831, 2832, 2833, 2834, 2835, 2836, 2837, 2838, 2839
 2840, 2841, 2842, 2843, 2844, 2845, 2846, 2847, 2848, 2849, 2850, 2851, 2852, 2853, 2854, 2855
 2856, 2857, 2858, 2859, 2860, 2861, 2862, 2863, 2864, 2865, 2866, 2867, 2868, 2869, 2870, 2871
 2872, 2873, 2874, 2875, 2876, 2877, 2878, 2879, 2880, 2881, 2882, 2883, 2884, 2885, 2886, 2887
 2888, 2889, 2890, 2891, 2892, 2893, 2894, 2895, 2896, 2897, 2898, 2899, 2900, 2901, 2902, 2903
 2904, 2905, 2906, 2907, 2908, 2909, 2910, 2911, 2912, 2913, 2914, 2915, 2916, 2917, 2918, 2919
 2920, 2921, 2922, 2923, 2924, 2925, 2926, 2927, 2928, 2929, 2930, 2931, 2932, 2933, 2934, 2935
 2936, 2937, 2938, 2939, 2940, 2941, 2942, 2943, 2944, 2945, 2946, 2947, 2948, 2949, 2950, 2951
 2952, 2953, 2954, 2955, 2956, 2957, 2958, 2959, 2960, 2961, 2962, 2963, 2964, 2965, 2966, 2967
 2968, 2969, 2970, 2971, 2972, 2973, 2974, 2975, 2976, 2977, 2978, 2979, 2980, 2981, 2982, 2983
 2984, 2985, 2986, 2987, 2988, 2989, 2990, 2991, 2992, 2993, 2994, 2995, 2996, 2997, 2998, 2999
 3000, 3001, 3002, 3003, 3004, 3005, 3006, 3007, 3008, 3009, 3010, 3011, 3012, 3013, 3014, 3015
 3016, 3017, 3018, 3019, 3020, 3021, 3022, 3023, 3024, 3025, 3026, 3027, 3028, 3029, 3030, 3031
 3032, 3033, 3034, 3035, 3036, 3037, 3038, 3039, 3040, 3041, 3042, 3043, 3044, 3045, 3046, 3047
 3048, 3049, 3050, 3051, 3052, 3053, 3054, 3055, 3056, 3057, 3058, 3059, 3060, 3061, 3062, 3063
 3064, 3065, 3066, 3067, 3068, 3069, 3070, 3071, 3072, 3073, 3074, 3075, 3076, 3077, 3078, 3079
 3080, 3081, 3082, 3083, 3084, 3085, 3086, 3087, 3088, 3089, 3090, 3091, 3092, 3093, 3094, 3095
 3096, 3097, 3098, 3099, 3100, 3101, 3102, 3103, 3104, 3105, 3106, 3107, 3108, 3109, 3110, 3111
 3112, 3113, 3114, 3115, 3116, 3117, 3118, 3119, 3120, 3121, 3122, 3123, 3124, 3125, 3126, 3127
 3128, 3129, 3130, 3131, 3132, 3133, 3134, 3135, 3136, 3137, 3138, 3139, 3140, 3141, 3142, 3143
 3144, 3145, 3146
*Elset, elset=_PickedSet4, internal, generate
 1801,  3000,     1
*Nset, nset=_PickedSet5, internal
    1,    2,    3,    4,    5,    6,    7,    8,   13,   14,   15,   16,   17,   18,   19,   20
   21,   22,   23,   24,   25,   26,   27,   28,   29,   30,   31,   32,   33,   34,   35,   36
   37,   38,   39,   40,   41,   42,   43,   44,   45,   46,   47,   48,   49,   50,   51,   52
   53,   54,   55,   56,   57,   58,   59,   60,   61,   62,   63,   64,   65,   66,   67,   68
   69,   70,   71,   72,   73,   74,   75,   76,   77,   78,   79,   80,   81,   82,   83,   84
   85,   86,   87,   88,   89,   90,   91,   92,   93,   94,   95,   96,   97,   98,   99,  100
  101,  102,  103,  104,  105,  106,  107,  108,  109,  110,  111,  112,  113,  114,  115,  116
  117,  118,  119,  120,  121,  122,  123,  124,  125,  126,  127,  128,  129,  130,  131,  132
  133,  134,  135,  136,  137,  138,  139,  140,  141,  142,  143,  144,  145,  146,  147,  148
  149,  150,  151,  152,  153,  154,  155,  156,  157,  158,  159,  160,  161,  162,  163,  164
  165,  166,  167,  168,  169,  170,  171,  172,  173,  174,  175,  176,  177,  178,  179,  180
  181,  182,  183,  184,  322,  323,  324,  325,  326,  327,  328,  329,  330,  331,  332,  333
  334,  335,  336,  337,  338,  339,  340,  341,  342,  343,  344,  345,  346,  347,  348,  349
  350,  351,  352,  353,  354,  355,  356,  357,  358,  359,  360,  361,  362,  363,  364,  365
  366,  367,  368,  369,  370,  371,  372,  373,  374,  375,  376,  377,  378,  379,  380,  381
  382,  383,  384,  385,  386,  387,  388,  389,  390,  391,  392,  393,  394,  395,  396,  397
  398,  399,  537,  538,  539,  540,  541,  542,  543,  544,  545,  546,  547,  548,  549,  550
  551,  552,  553,  554,  555,  556,  557,  558,  559,  560,  561,  562,  563,  564,  565,  566
  567,  568,  569,  570,  571,  572,  573,  574,  575,  576,  577,  578,  579,  580,  581,  582
  583,  584,  585,  586,  587,  588,  589,  590,  591,  592,  593,  594,  595,  596,  597,  598
  599,  600,  601,  602,  603,  604,  605,  606,  607,  608,  609,  610,  611,  612,  613,  614
  615,  616,  617,  618,  619,  620,  621,  622,  623,  624,  625,  626,  627,  628,  629,  630
  631,  632,  633,  634,  635,  636,  637,  638,  639,  640,  641,  642,  643,  644,  645,  646
  647,  648,  649,  650,  651,  652,  653,  654,  655,  656,  657,  658,  659,  660,  661,  662
  663,  664,  665,  666,  667,  668,  669,  670,  671,  672,  673,  674,  675,  676,  677,  678
  679,  680,  681,  682,  683,  684,  685,  686,  687,  688,  689,  690,  691,  692,  693,  694
  695,  696,  697,  698,  699,  700,  701,  702,  703,  704,  705,  706,  707,  708,  709,  710
  711,  712,  713,  714,  715,  716,  717,  718,  719,  720,  721,  722,  723,  724,  725,  726
  727,  728,  729,  730,  731,  732,  733,  734,  735,  736,  737,  738,  739,  740,  741,  742
  743,  744,  745,  746,  747,  748,  749,  750,  751,  752,  753,  754,  755,  756,  757,  758
  759,  760,  761,  762,  763,  764,  765,  766,  767,  768,  769,  770,  771,  772,  773,  774
  775,  776,  777,  778,  779,  780,  781,  782,  783,  784,  785,  786,  787,  788,  789,  790
  791,  792,  793,  794,  795,  796,  797,  798,  799,  800,  801,  802,  803,  804,  805,  806
  807,  808,  809,  810,  811,  812,  813,  814,  815,  816,  817,  818,  819,  820,  821,  822
  823,  824,  825,  826,  827,  828,  829,  830,  831,  832,  833,  834,  835,  836,  837,  838
  839,  840,  841,  842,  843,  844,  845,  846,  847,  848, 1920, 1921, 1922, 1923, 1924, 1925
 1926, 1927, 1928, 1929, 1930, 1931, 1932, 1933, 1934, 1935, 1936, 1937, 1938, 1939, 1940, 1941
 1942, 1943, 1944, 1945, 1946, 1947, 1948, 1949, 1950, 1951, 1952, 1953, 1954, 1955, 1956, 1957
 1958, 1959, 1960, 1961, 1962, 1963, 1964, 1965, 1966, 1967, 1968, 1969, 1970, 1971, 1972, 1973
 1974, 1975, 1976, 1977, 1978, 1979, 1980, 1981, 1982, 1983, 1984, 1985, 1986, 1987, 1988, 1989
 1990, 1991, 1992, 1993, 1994, 1995, 1996, 1997, 1998, 1999, 2000, 2001, 2002, 2003, 2004, 2005
 2006, 2007, 2008, 2009, 2010, 2011, 2012, 2013, 2014, 2015, 2016, 2017, 2018, 2019, 2020, 2021
 2022, 2023, 2024, 2025, 2026, 2027, 2028, 2029, 2030, 2031, 2032, 2033, 2034, 2035, 2036, 2037
 2038, 2039, 2040, 2041, 2042, 2043, 2044, 2045, 2046, 2047, 2048, 2049, 2050, 2051, 2052, 2053
 2054, 2055, 2056, 2057, 2058, 2059, 2060, 2061, 2062, 2063, 2064, 2065, 2066, 2067, 2068, 2069
 2070, 2071, 2072, 2073, 2074, 2075
*Elset, elset=_PickedSet5, internal
    1,    2,    3,    4,    5,    6,    7,    8,    9,   10,   11,   12,   13,   14,   15,   16
   17,   18,   19,   20,   21,   22,   23,   24,   25,   26,   27,   28,   29,   30,   31,   32
   33,   34,   35,   36,   37,   38,   39,   40,   41,   42,   43,   44,   45,   46,   47,   48
   49,   50,   51,   52,   53,   54,   55,   56,   57,   58,   59,   60,   61,   62,   63,   64
   65,   66,   67,   68,   69,   70,   71,   72,   73,   74,   75,   76,   77,   78,   79,   80
   81,   82,   83,   84,   85,   86,   87,   88,   89,   90,   91,   92,   93,   94,   95,   96
   97,   98,   99,  100,  101,  102,  103,  104,  105,  106,  107,  108,  109,  110,  111,  112
  113,  114,  115,  116,  117,  118,  119,  120,  121,  122,  123,  124,  125,  126,  127,  128
  129,  130,  131,  132,  133,  134,  135,  136,  137,  138,  139,  140,  141,  142,  143,  144
  145,  146,  147,  148,  149,  150,  151,  152,  153,  154,  155,  156,  157,  158,  159,  160
  161,  162,  163,  164,  165,  166,  167,  168,  169,  170,  171,  172,  173,  174,  175,  176
  177,  178,  179,  180,  181,  182,  183,  184,  185,  186,  187,  188,  189,  190,  191,  192
  193,  194,  195,  196,  197,  198,  199,  200,  201,  202,  203,  204,  205,  206,  207,  208
  209,  210,  211,  212,  213,  214,  215,  216,  217,  218,  219,  220,  221,  222,  223,  224
  225,  226,  227,  228,  229,  230,  231,  232,  233,  234,  235,  236,  237,  238,  239,  240
  241,  242,  243,  244,  245,  246,  247,  248,  249,  250,  251,  252,  253,  254,  255,  256
  257,  258,  259,  260,  261,  262,  263,  264,  265,  266,  267,  268,  269,  270,  271,  272
  273,  274,  275,  276,  277,  278,  279,  280,  281,  282,  283,  284,  285,  286,  287,  288
  289,  290,  291,  292,  293,  294,  295,  296,  297,  298,  299,  300,  301,  302,  303,  304
  305,  306,  307,  308,  309,  310,  311,  312,  313,  314,  315,  316,  317,  318,  319,  320
  321,  322,  323,  324,  325,  326,  327,  328,  329,  330,  331,  332,  333,  334,  335,  336
  337,  338,  339,  340,  341,  342,  343,  344,  345,  346,  347,  348,  349,  350,  351,  352
  353,  354,  355,  356,  357,  358,  359,  360,  361,  362,  363,  364,  365,  366,  367,  368
  369,  370,  371,  372,  373,  374,  375,  376,  377,  378,  379,  380,  381,  382,  383,  384
  385,  386,  387,  388,  389,  390,  391,  392,  393,  394,  395,  396,  397,  398,  399,  400
 1601, 1602, 1603, 1604, 1605, 1606, 1607, 1608, 1609, 1610, 1611, 1612, 1613, 1614, 1615, 1616
 1617, 1618, 1619, 1620, 1621, 1622, 1623, 1624, 1625, 1626, 1627, 1628, 1629, 1630, 1631, 1632
 1633, 1634, 1635, 1636, 1637, 1638, 1639, 1640, 1641, 1642, 1643, 1644, 1645, 1646, 1647, 1648
 1649, 1650, 1651, 1652, 1653, 1654, 1655, 1656, 1657, 1658, 1659, 1660, 1661, 1662, 1663, 1664
 1665, 1666, 1667, 1668, 1669, 1670, 1671, 1672, 1673, 1674, 1675, 1676, 1677, 1678, 1679, 1680
 1681, 1682, 1683, 1684, 1685, 1686, 1687, 1688, 1689, 1690, 1691, 1692, 1693, 1694, 1695, 1696
 1697, 1698, 1699, 1700, 1701, 1702, 1703, 1704, 1705, 1706, 1707, 1708, 1709, 1710, 1711, 1712
 1713, 1714, 1715, 1716, 1717, 1718, 1719, 1720, 1721, 1722, 1723, 1724, 1725, 1726, 1727, 1728
 1729, 1730, 1731, 1732, 1733, 1734, 1735, 1736, 1737, 1738, 1739, 1740, 1741, 1742, 1743, 1744
 1745, 1746, 1747, 1748, 1749, 1750, 1751, 1752, 1753, 1754, 1755, 1756, 1757, 1758, 1759, 1760
 1761, 1762, 1763, 1764, 1765, 1766, 1767, 1768, 1769, 1770, 1771, 1772, 1773, 1774, 1775, 1776
 1777, 1778, 1779, 1780, 1781, 1782, 1783, 1784, 1785, 1786, 1787, 1788, 1789, 1790, 1791, 1792
 1793, 1794, 1795, 1796, 1797, 1798, 1799, 1800
*Nset, nset=_PickedSet6, internal
    1,    4,    6,    7,    9,   10,   60,   61,   62,   63,   64,   65,   66,   67,   68,   69
   70,   71,   72,   73,   74,   75,   76,   77,   78,   79,   80,   81,   82,   83,   84,   85
   86,   87,   88,   89,   90,   91,   92,   93,   94,   95,   96,   97,   98,  103,  104,  105
  106,  107,  108,  109,  110,  111,  112,  113,  114,  115,  116,  117,  118,  119,  120,  121
  122,  123,  124,  125,  126,  127,  128,  129,  130,  131,  132,  133,  134,  135,  136,  137
  138,  139,  140,  141,  185,  186,  187,  188,  189,  190,  191,  192,  193,  194,  195,  196
  197,  198,  199,  200,  201,  202,  203,  204,  205,  206,  207,  208,  209,  210,  211,  212
  213,  214,  215,  216,  217,  218,  219,  220,  221,  222,  223,  224,  225,  226,  227,  228
  229,  230,  231,  232,  233,  234,  235,  236,  237,  238,  239,  240,  241,  242,  243,  244
  245,  246,  247,  248,  249,  250,  251,  252,  253,  254,  255,  256,  257,  258,  259,  260
  261,  262,  263,  264,  265,  266,  267,  268,  269,  270,  271,  272,  273,  274,  275,  276
  277,  278,  279,  280,  281,  282,  283,  284,  285,  286,  287,  288,  289,  290,  291,  292
  293,  294,  295,  296,  297,  298,  299,  300,  301,  302,  303,  304,  305,  306,  307,  308
  309,  310,  311,  312,  313,  314,  315,  316,  317,  318,  319,  320,  321,  322,  323,  324
  325,  326,  327,  328,  329,  330,  331,  332,  333,  334,  335,  336,  337,  338,  339,  340
  341,  342,  343,  344,  345,  346,  347,  348,  349,  350,  351,  352,  353,  354,  355,  356
  357,  358,  359,  360,  849,  850,  851,  852,  853,  854,  855,  856,  857,  858,  859,  860
  861,  862,  863,  864,  865,  866,  867,  868,  869,  870,  871,  872,  873,  874,  875,  876
  877,  878,  879,  880,  881,  882,  883,  884,  885,  886,  887,  888,  889,  890,  891,  892
  893,  894,  895,  896,  897,  898,  899,  900,  901,  902,  903,  904,  905,  906,  907,  908
  909,  910,  911,  912,  913,  914,  915,  916,  917,  918,  919,  920,  921,  922,  923,  924
  925,  926,  927,  928,  929,  930,  931,  932,  933,  934,  935,  936,  937,  938,  939,  940
  941,  942,  943,  944,  945,  946,  947,  948,  949,  950,  951,  952,  953,  954,  955,  956
  957,  958,  959,  960,  961,  962,  963,  964,  965,  966,  967,  968,  969,  970,  971,  972
  973,  974,  975,  976,  977,  978,  979,  980,  981,  982,  983,  984,  985,  986,  987,  988
  989,  990,  991,  992,  993,  994,  995,  996,  997,  998,  999, 1000, 1001, 1002, 1003, 1004
 1005, 1006, 1007, 1008, 1009, 1010, 1011, 1012, 1013, 1014, 1015, 1016, 1017, 1018, 1019, 1020
 1021, 1022, 1023, 1024, 1025, 1026, 1027, 1028, 1029, 1030, 1031, 1032, 1033, 1034, 1035, 1036
 1037, 1038, 1039, 1040, 1041, 1042, 1043, 1044, 1045, 1046, 1047, 1048, 1049, 1050, 1051, 1052
 1053, 1054, 1055, 1056, 1057, 1058, 1059, 1060, 1061, 1062, 1063, 1064, 1065, 1066, 1067, 1068
 1069, 1070, 1071, 1072, 1073, 1074, 1075, 1076, 1077, 1078, 1079, 1080, 1081, 1082, 1083, 1084
 1085, 1086, 1087, 1088, 1089, 1090, 1091, 1092, 1093, 1094, 1095, 1096, 1097, 1098, 1099, 1100
 1101, 1102, 1103, 1104, 1105, 1106, 1107, 1108, 1109, 1110, 1111, 1112, 1113, 1114, 1115, 1116
 1117, 1118, 1119, 1120, 1121, 1122, 1123, 1124, 1125, 1126, 1127, 1128, 1129, 1130, 1131, 1132
 1133, 1134, 1135, 1136, 1137, 1138, 1139, 1140, 1141, 1142, 1143, 1144, 1145, 1146, 1147, 1148
 1149, 1150, 1151, 1152, 1153, 1154, 1155, 1156, 1157, 1158, 1159, 1160, 1161, 1162, 1163, 1164
 1165, 1166, 1167, 1168, 1169, 1170, 1171, 1172, 1173, 1174, 1175, 1176, 1177, 1178, 1179, 1180
 1181, 1182, 1183, 1184, 1185, 1186, 1187, 1188, 1189, 1190, 1191, 1192, 1193, 1194, 1195, 1196
 1197, 1198, 1199, 1200, 1201, 1202, 1203, 1204, 1205, 1206, 1207, 1208, 1209, 1210, 1211, 1212
 1213, 1214, 1215, 1216, 1217, 1218, 1219, 1220, 1221, 1222, 1223, 1224, 1225, 1226, 1227, 1228
 1229, 1230, 1231, 1232, 1233, 1234, 1235, 1236, 1237, 1238, 1239, 1240, 1241, 1242, 1243, 1244
 1245, 1246, 1247, 1248, 1249, 1250, 1251, 1252, 1253, 1254, 1255, 1256, 1257, 1258, 1259, 1260
 1261, 1262, 1263, 1264, 1265, 1266, 1267, 1268, 1269, 1270, 1271, 1272, 1273, 1274, 1275, 1276
 1277, 1278, 1279, 1280, 1281, 1282, 1283, 1284, 1285, 1286, 1287, 1288, 1289, 1290, 1291, 1292
 1293, 1294, 1295, 1296, 1297, 1298, 1299, 1300, 1301, 1302, 1303, 1304, 1305, 1306, 1307, 1308
 1309, 1310, 1311, 1312, 1313, 1314, 1315, 1316, 1317, 1318, 1319, 1320, 1321, 1322, 1323, 1324
 1325, 1326, 1327, 1328, 1329, 1330, 1331, 1332, 1333, 1334, 1335, 1336, 1337, 1338, 1339, 1340
 1341, 1342, 1343, 1344, 1345, 1346, 1347, 1348, 1349, 1350, 1351, 1352, 1353, 1354, 1355, 1356
 1357, 1358, 1359, 1360, 1361, 1362, 1363, 1364, 1365, 1366, 1367, 1368, 1369, 1370, 1371, 1372
 1373, 1374, 1375, 1376, 1377, 1378, 1379, 1380, 1381, 1382, 1383, 1384, 1385, 1386, 1387, 1388
 1389, 1390, 1391, 1392, 1393, 1394, 1395, 1396, 1397, 1398, 1399, 1400, 1401, 1402, 1403, 1404
 1405, 1406, 1407, 1408, 1409, 1410, 1411, 1412, 1413, 1414, 1415, 1416, 1417, 1418, 1419, 1420
 1421, 1422, 1423, 1424, 1425, 1426, 1427, 1428, 1429, 1430, 1431, 1432, 1433, 1434, 1435, 1436
 1437, 1438, 1439, 1440, 1441, 1442, 1443, 1444, 1445, 1446, 1447, 1448, 1449, 1450, 1451, 1452
 1453, 1454, 1455, 1456, 1457, 1458, 1459, 1460, 1461, 1462, 1463, 1464, 1465, 1466, 1467, 1468
 1469, 1470, 1471, 1472, 1473, 1474, 1475, 1476, 1477, 1478, 1479, 1480, 1481, 1482, 1483, 1484
 1485, 1486, 1487, 1488, 1489, 1490, 1491, 1492, 1493, 1494, 1495, 1496, 1497, 1498, 1499, 1500
 1501, 1502, 1503, 1504, 1505, 1506, 1507, 1508, 1509, 1510, 1511, 1512, 1513, 1514, 1515, 1516
 1517, 1518, 1519, 1520, 1521, 1522, 1523, 1524, 1525, 1526, 1527, 1528, 1529, 1530, 1531, 1532
 1533, 1534, 1535, 1536, 1537, 1538, 1539, 1540, 1541, 1542, 1543, 1544, 1545, 1546, 1547, 1548
 1549, 1550, 1551, 1552, 1553, 1554, 1555, 1556, 1557, 1558, 1559, 1560, 1561, 1562, 1563, 1564
 1565, 1566, 1567, 1568, 1569, 1570, 1571, 1572, 1573, 1574, 1575, 1576, 1577, 1578, 1579, 1580
 1581, 1582, 1583, 1584, 1585, 1586, 1587, 1588, 1589, 1590, 1591, 1592, 1593, 1594, 1595, 1596
 1597, 1598, 1599, 1600, 1601, 1602, 1603, 1604, 1605, 1606, 1607, 1608, 1609, 1610, 1611, 1612
 1613, 1614, 1615, 1616, 1617, 1618, 1619, 1620, 1621, 1622, 1623, 1624, 1625, 1626, 1627, 1628
 1629, 1630, 1631, 1632, 1633, 1634, 1635, 1636, 1637, 1638, 1639, 1640, 1641, 1642, 1643, 1644
 1645, 1646, 1647, 1648, 1649, 1650, 1651, 1652, 1653, 1654, 1655, 1656, 1657, 1658, 1659, 1660
 1661, 1662, 1663, 1664, 1665, 1666, 1667, 1668, 1669, 1670, 1671, 1672, 1673, 1674, 1675, 1676
 1677, 1678, 1679, 1680, 1681, 1682, 1683, 1684, 1685, 1686, 1687, 1688, 1689, 1690, 1691, 1692
 1693, 1694, 1695, 1696, 1697, 1698, 1699, 1700, 1701, 1702, 1703, 1704, 1705, 1706, 1707, 1708
 1709, 1710, 1711, 1712, 1713, 1714, 1715, 1716, 1717, 1718, 1719, 1720, 1721, 1722, 1723, 1724
 1725, 1726, 1727, 1728, 1729, 1730, 1731, 1732, 1733, 1734, 1735, 1736, 1737, 1738, 1739, 1740
 1741, 1742, 1743, 1744, 1745, 1746, 1747, 1748, 1749, 1750, 1751, 1752, 1753, 1754, 1755, 1756
 1757, 1758, 1759, 1760, 1761, 1762, 1763, 1764, 1765, 1766, 1767, 1768, 1769, 1770, 1771, 1772
 1773, 1774, 1775, 1776, 1777, 1778, 1779, 1780, 1781, 1782, 1783, 1784, 1785, 1786, 1787, 1788
 1789, 1790, 1791, 1792, 1793, 1794, 1795, 1796, 1797, 1798, 1799, 1800, 1801, 1802, 1803, 1804
 1805, 1806, 1807, 1808, 1809, 1810, 1811, 1812, 1813, 1814, 1815, 1816, 1817, 1818, 1819, 1820
 1821, 1822, 1823, 1824, 1825, 1826, 1827, 1828, 1829, 1830, 1831, 1832, 1833, 1834, 1835, 1836
 1837, 1838, 1839, 1840, 1841, 1842, 1843, 1844, 1845, 1846, 1847, 1848, 1849, 1850, 1851, 1852
 1853, 1854, 1855, 1856, 1857, 1858, 1859, 1860, 1861, 1862, 1863, 1864, 1865, 1866, 1867, 1868
 1869, 1870, 1871, 1872, 1873, 1874, 1875, 1876, 1877, 1878, 1879, 1880, 1881, 1882, 1883, 1884
 1885, 1886, 1887, 1888, 1889, 1890, 1891, 1892, 1893, 1894, 1895, 1896, 1897, 1898, 1899, 1900
 1901, 1902, 1903, 1904, 1905, 1906, 1907, 1908, 1909, 1910, 1911, 1912, 1913, 1914, 1915, 1916
 1917, 1918, 1919
*Elset, elset=_PickedSet6, internal, generate
  401,  1600,     1
** Section: SEC_SEED
*Solid Section, elset=_PickedSet5, material=LITHIUM_IP
,
** Section: SEC_LITHIUM
*Solid Section, elset=_PickedSet6, material=LITHIUM_SUB
,
** Section: SEC_LLZO
*Solid Section, elset=_PickedSet4, material=LLZO
,
*End Instance
**  
*Nset, nset=BOTTOM, instance=LITHIUM_INST
  11,  12, 409, 410, 411, 412, 413, 414, 415, 416, 417, 418, 419, 420, 421, 422
 423, 424, 425, 426, 427, 428, 429, 430, 431, 432, 433, 434, 435, 436, 437, 438
 439, 440, 441, 442, 443, 444, 445, 446, 447, 448, 449, 450, 451, 452, 453, 454
 455, 456, 457, 458, 459, 460, 461, 462, 463, 464, 465, 466, 467, 468, 469, 470
 471, 472, 473, 474, 475, 476, 477, 478, 479, 480, 481, 482, 483, 484, 485, 486
 487, 488, 489, 490, 491, 492, 493, 494, 495, 496, 497, 498, 499, 500, 501, 502
 503, 504, 505, 506, 507, 508, 509, 510, 511, 512, 513, 514, 515, 516, 517, 518
 519, 520, 521, 522, 523, 524, 525, 526, 527
*Elset, elset=BOTTOM, instance=LITHIUM_INST, generate
 2881,  3000,     1
*Nset, nset=LEFT, instance=LITHIUM_INST
   7,   8,  10,  11, 142, 143, 144, 145, 313, 314, 315, 316, 317, 318, 319, 320
 321, 400, 401, 402, 403, 404, 405, 406, 407, 408
*Elset, elset=LEFT, instance=LITHIUM_INST
  396,  397,  398,  399,  400, 1591, 1592, 1593, 1594, 1595, 1596, 1597, 1598, 1599, 1600, 1920
 2040, 2160, 2280, 2400, 2520, 2640, 2760, 2880, 3000
*Nset, nset=RIGHT, instance=LITHIUM_INST
   3,   4,   9,  12,  56,  57,  58,  59, 185, 186, 187, 188, 189, 190, 191, 192
 193, 528, 529, 530, 531, 532, 533, 534, 535, 536
*Elset, elset=RIGHT, instance=LITHIUM_INST
  196,  197,  198,  199,  200,  401,  402,  403,  404,  405,  406,  407,  408,  409,  410, 1801
 1921, 2041, 2161, 2281, 2401, 2521, 2641, 2761, 2881
*Nset, nset=TOP_NODES, instance=LITHIUM_INST
   9,  10, 194, 195, 196, 197, 198, 199, 200, 201, 202, 203, 204, 205, 206, 207
 208, 209, 210, 211, 212, 213, 214, 215, 216, 217, 218, 219, 220, 221, 222, 223
 224, 225, 226, 227, 228, 229, 230, 231, 232, 233, 234, 235, 236, 237, 238, 239
 240, 241, 242, 243, 244, 245, 246, 247, 248, 249, 250, 251, 252, 253, 254, 255
 256, 257, 258, 259, 260, 261, 262, 263, 264, 265, 266, 267, 268, 269, 270, 271
 272, 273, 274, 275, 276, 277, 278, 279, 280, 281, 282, 283, 284, 285, 286, 287
 288, 289, 290, 291, 292, 293, 294, 295, 296, 297, 298, 299, 300, 301, 302, 303
 304, 305, 306, 307, 308, 309, 310, 311, 312
*Elset, elset=TOP_NODES, instance=LITHIUM_INST, generate
  410,  1600,    10
*Elset, elset=_TOP_SURFACE_S2, internal, instance=LITHIUM_INST, generate
  410,  1600,    10
*Surface, type=ELEMENT, name=TOP_SURFACE
_TOP_SURFACE_S2, S2
*End Assembly
** 
** MATERIALS
** 
*Material, name=LITHIUM_IP
*Depvar
     24,
*User Material, constants=16
7810.,    0.38, 4.254e4,     37.,    298.,   0.15,   0.95,     10.
     2.,      2.,    0.05, 1.3e-05,      0.,      1.,      0., 103.643
*Material, name=LITHIUM_SUB
*Depvar
     24,
*User Material, constants=16
7810.,    0.38, 4.254e4,     37.,    298.,   0.15,   0.95,     10.
     2.,      2.,    0.05, 1.3e-05,      0.,      1.,      0.,      0.
*Material, name=LLZO
*Elastic
150000., 0.25
** 
** BOUNDARY CONDITIONS
** 
** Name: BC_BOT Type: Displacement/Rotation
*Boundary
BOTTOM, 1, 1
BOTTOM, 2, 2
** Name: BC_LEFT Type: Displacement/Rotation
*Boundary
LEFT, 1, 1
** Name: BC_RIGHT Type: Displacement/Rotation
*Boundary
RIGHT, 1, 1
** ----------------------------------------------------------------
** 
** STEP: Step-1
** 
*Step, name=Step-1, nlgeom=YES, inc=100000
*Static, stabilize, factor=0.002, allsdtol=0, continue=NO
0.001, 21600., 1e-07, 1.
** 
** LOADS
** 
** Name: Load-1   Type: Pressure
*Dsload
TOP_SURFACE, P, 0.1
** 
** OUTPUT REQUESTS
** 
*Restart, write, frequency=0
** 
** FIELD OUTPUT: F-Output-1
** 
*Output, field
*Node Output
NT, RF, U
*Element Output, directions=YES
LE, S, SDV, STATUS
** 
** HISTORY OUTPUT: H-Output-1
** 
*Output, history, variable=PRESELECT
*End Step
