*Heading
** Job name: final_m Model name: Model-1
** Generated by: Antigravity (Golden State Recovery - 10-Layer Seed)
*Preprint, echo=NO, model=NO, history=NO, contact=NO
**
** PARTS
**
*Part, name=LITHIUM_SE
*Node
      1,           0.,           0.
     41,          20.,           0.
** Interface 1 (y=5.0)
    411,           0.,           5.
    451,          20.,           5.
** Interface 2 (y=5.5)
    821,           0.,           5.5
    861,          20.,           5.5
** Top (y=10.5)
   1231,           0.,          10.5
   1271,          20.,          10.5
*NGEN, NSET=L1
1, 41, 1
*NGEN, NSET=L2
411, 451, 1
*NGEN, NSET=L3
821, 861, 1
*NGEN, NSET=L4
1231, 1271, 1
**
** Precision Filling: 10 - 10 - 10 layers (Exactly matching 10-division Seed)
*Nfill, nset=SET_LLZO_NODES
L1, L2, 10, 41
*Nfill, nset=SET_SEED_NODES
L2, L3, 10, 41
*Nfill, nset=SET_LITHIUM_NODES
L3, L4, 10, 41
*Nset, nset=ALL_NODES
SET_LLZO_NODES, SET_SEED_NODES, SET_LITHIUM_NODES
**
*Element, type=CPE4H
1, 1, 2, 43, 42
*Elgen, elset=ALL_ELEMENTS
1, 40, 1, 1, 30, 41, 40
**
** Sections
*Elset, elset=SET_LLZO, generate
1, 400, 1
*Elset, elset=SET_SEED, generate
401, 800, 1
*Elset, elset=SET_LITHIUM, generate
801, 1200, 1
*Solid Section, elset=SET_LLZO, material=LLZO
1.
*Solid Section, elset=SET_SEED, material=LITHIUM_IP
1.
*Solid Section, elset=SET_LITHIUM, material=LITHIUM_SUB
1.
*End Part
**
** ASSEMBLY
*Assembly, name=Assembly
*Instance, name=LITHIUM_INST, part=LITHIUM_SE
*End Instance
*Nset, nset=BOTTOM, instance=LITHIUM_INST, generate
1, 41, 1
*Nset, nset=LEFT, instance=LITHIUM_INST, generate
1, 1231, 41
*Nset, nset=RIGHT, instance=LITHIUM_INST, generate
41, 1271, 41
*Nset, nset=TOP_NODES, instance=LITHIUM_INST, generate
1231, 1271, 1
*Elset, elset=TOP_SURF_EL, instance=LITHIUM_INST, generate
1161, 1200, 1
*Surface, type=ELEMENT, name=TOP_SURFACE
TOP_SURF_EL, S3
*End Assembly
**
** MATERIALS
*Material, name=LITHIUM_IP
*User material, Constants=11
  7.2e3,   0.38,  3.1,  5.7,   2.0,  2.0,  1.3e-05, 0.0,   1.0,   0.0,   103.643
*Depvar
24
*Material, name=LITHIUM_SUB
*User material, Constants=11
  7.2e3,   0.38,  3.1,  5.7,   2.0,  2.0,  1.3e-05, 0.0,   1.0,   0.0,   0.0
*Depvar
24
*Material, name=LLZO
*Elastic
150000., 0.25
**
** INITIAL CONDITIONS
*Initial Conditions, type=TEMPERATURE
LITHIUM_INST.ALL_NODES, 0.0
**
** STEP
*Restart, write, frequency=1
*Step, name=Step-1, nlgeom=YES, inc=100000
*Static, stabilize, factor=0.002, allsdtol=0, continue=NO
0.001, 21600.0, 1.e-7, 1.0
*CONTROLS, PARAMETERS=TIME INCREMENTATION
,,,,,,,30,,,,,,
*Boundary
BOTTOM, 1, 2
LEFT, 1, 1
RIGHT, 1, 1
*Dsload
TOP_SURFACE, P, 0.1
*Output, field, frequency=10
*Node Output
U, RF, NT
*Element Output, directions=YES
S, LE, SDV, STATUS
*Output, history, frequency=1
*Node Output, nset=TOP_NODES
U2
*End Step
